                   time,             contraction,            displacement,                    load,      engineering_strain,      engineering_stress,             true_strain,             true_stress,             temperature,           log_strain_xx,        cauchy_stress_xx,           log_strain_yy,        cauchy_stress_yy
 1.0000000000000000e+00,  0.0000000000000000e+00,  0.0000000000000000e+00,  0.0000000000000000e+00,  0.0000000000000000e+00,  0.0000000000000000e+00,  0.0000000000000000e+00,  0.0000000000000000e+00,  2.9800000000000000e+02,  0.0000000000000000e+00,  0.0000000000000000e+00,  0.0000000000000000e+00,  0.0000000000000000e+00
 1.0479966670000000e+00,  4.5000047912550865e-07, -1.6666666782415462e-06, -3.3333391345170891e+05, -1.6666666782415462e-06, -3.3333391345170891e+05, -1.6666680671837455e-06, -3.3333361345106986e+05,  2.9800000000000000e+02,  4.5000037799458807e-07, -5.5542861446156180e-05,  4.5000037795870304e-07, -5.5542863265145570e-05
 4.9044663337000003e+01,  5.4515819723304632e-04, -1.6683333334606570e-03, -2.5232151431830505e+08, -1.6683333334606570e-03, -2.5232151431830505e+08, -1.6697265512997787e-03, -2.5204662883909416e+08,  2.9800000000000000e+02,  5.4500965248753411e-04,  1.0317545384168647e-03,  5.4500965248686776e-04,  9.6949748694896514e-04
 9.7041330006999999e+01,  1.3720228164357509e-03, -3.3350000002430723e-03, -2.6089208201337895e+08, -3.3350000002430723e-03, -2.6089208201337895e+08, -3.3405735079593919e-03, -2.6017765289065367e+08,  2.9800000000000000e+02,  1.3710824531664040e-03,  4.3891165405512090e-03,  1.3710824531643353e-03,  4.2711384594440235e-03
 1.4503799667700002e+02,  2.2009862019077321e-03, -5.0016666670254879e-03, -2.6947872744638127e+08, -5.0016666670254879e-03, -2.6947872744638127e+08, -5.0142168671836896e-03, -2.6829639440315077e+08,  2.9800000000000000e+02,  2.1985675800292679e-03,  5.2409246563912143e-05,  2.1985675800269798e-03, -1.0885298252106384e-05
 1.9303466334700002e+02,  3.0320571428563434e-03, -6.6683333338079043e-03, -2.7808152682355988e+08, -6.6683333338079043e-03, -2.7808152682355988e+08, -6.6906660050311852e-03, -2.7640284729488075e+08,  2.9800000000000000e+02,  3.0274697281272821e-03, -3.3341348171233684e-05,  3.0274697281250235e-03, -5.8118253946304735e-05
 2.4103133001700002e+02,  3.8652444800745178e-03, -8.3350000005903199e-03, -2.8670055688461518e+08, -8.3350000005903199e-03, -2.8670055688461518e+08, -8.3699303447930390e-03, -2.8449700550640464e+08,  2.9800000000000000e+02,  3.8577936160649729e-03,  5.5054202675819499e-05,  3.8577936160630300e-03,  5.1207840442657383e-05
 2.8902799668700004e+02,  4.7005571064034184e-03, -1.0001666667372736e-02, -2.9533589488755393e+08, -1.0001666667372736e-02, -2.9533589488755393e+08, -1.0052019357315190e-02, -2.9257886298106509e+08,  2.9800000000000000e+02,  4.6895439862300568e-03,  3.8623809814453193e-05,  4.6895439862282900e-03,  4.0892511606216356e-05
 3.3702466335700001e+02,  5.5380039671114011e-03, -1.1668333334155153e-02, -3.0398761861651629e+08, -1.1668333334155153e-02, -3.0398761861651629e+08, -1.1736942561315303e-02, -3.0064841366841686e+08,  2.9800000000000000e+02,  5.5227256049393148e-03, -4.0456652641296536e-05,  5.5227256049376105e-03, -3.8057565689086758e-05
 3.8502133002700003e+02,  6.3775940602930374e-03, -1.3335000000937567e-02, -3.1265580638643342e+08, -1.3335000000937567e-02, -3.1265580638643342e+08, -1.3424709523706883e-02, -3.0870565152444154e+08,  2.9800000000000000e+02,  6.3573432626007663e-03, -9.5926225185393948e-06,  6.3573432625989969e-03,  4.2840838432330117e-08
 4.3301799669700006e+02,  7.2193364372711089e-03, -1.5001666667719984e-02, -3.2134053704792011e+08, -1.5001666667719984e-02, -3.2134053704792011e+08, -1.5115329859926373e-02, -3.1675057051194990e+08,  2.9800000000000000e+02,  7.1934017738751058e-03,  6.2283128499984768e-05,  7.1934017738732184e-03,  6.5959990024566583e-05
 4.8101466336700003e+02,  8.0632402030012054e-03, -1.6668333334502398e-02, -3.3004188999165100e+08, -1.6668333334502398e-02, -3.3004188999165100e+08, -1.6808813234260745e-02, -3.2478316460042393e+08,  2.9800000000000000e+02,  8.0309059778403639e-03,  1.0484829545020972e-05,  8.0309059778383117e-03, -3.7495046854018758e-06
 5.2901133003699999e+02,  8.9093145164831147e-03, -1.8335000001284810e-02, -3.3875994515248764e+08, -1.8335000001284810e-02, -3.3875994515248764e+08, -1.8505169360178906e-02, -3.3280342776557285e+08,  2.9800000000000000e+02,  8.8698607381594193e-03,  2.5782734155654951e-05,  8.8698607381574850e-03,  3.4427270293235786e-05
 5.7700799670700007e+02,  9.7575685911732261e-03, -2.0001666668067224e-02, -3.4749478301477480e+08, -2.0001666668067224e-02, -3.4749478301477480e+08, -2.0204408000666720e-02, -3.4081135398999268e+08,  2.9800000000000000e+02,  9.7102709432453568e-03,  8.7216496467590427e-05,  9.7102709432433532e-03,  9.1111287474632182e-05
 6.2500466337700004e+02,  1.0608011695401477e-02, -2.1668333334849642e-02, -3.5624648461693037e+08, -2.1668333334849642e-02, -3.5624648461693037e+08, -2.1906538968563784e-02, -3.4880693726308274e+08,  2.9800000000000000e+02,  1.0552141506429604e-02, -4.6811997890472487e-05,  1.0552141506427498e-02, -4.3727457523345866e-05
 6.7300133004700001e+02,  1.1460653152792868e-02, -2.3335000001632057e-02, -3.6501513155537760e+08, -2.3335000001632057e-02, -3.6501513155537760e+08, -2.3611572126902326e-02, -3.5679017158027196e+08,  2.9800000000000000e+02,  1.1395477366134273e-02,  2.3445114493370066e-05,  1.1395477366132136e-02,  2.3208558559417653e-05
 7.2099799671700009e+02,  1.2315502342692677e-02, -2.5001666668414475e-02, -3.7380080599066359e+08, -2.5001666668414475e-02, -3.7380080599066359e+08, -2.5319517389252894e-02, -3.6476105094434053e+08,  2.9800000000000000e+02,  1.2240283486040844e-02,  3.0081719160080219e-06,  1.2240283486038658e-02,  5.6624412536620772e-06
 7.6899466338700006e+02,  1.3172568700595423e-02, -2.6668333335196893e-02, -3.8260359065117228e+08, -2.6668333335196893e-02, -3.8260359065117228e+08, -2.7030384720067129e-02, -3.7271956936433578e+08,  2.9800000000000000e+02,  1.3086564855264904e-02,  1.5465542674064772e-05,  1.3086564855262767e-02,  2.3752450942993052e-05
 8.1699133005700003e+02,  1.4031861718578079e-02, -2.8335000001979305e-02, -3.9142356883855748e+08, -2.8335000001979305e-02, -3.9142356883855748e+08, -2.8744184135028238e-02, -3.8066572085612452e+08,  2.9800000000000000e+02,  1.3934326488530036e-02,  6.6902488470077515e-05,  1.3934326488527698e-02,  6.5756961703300517e-05
 8.6498799672700011e+02,  1.4893390945736912e-02, -3.0001666668761723e-02, -4.0026082443266231e+08, -3.0001666668761723e-02, -4.0026082443266231e+08, -3.0460925701402838e-02, -3.8859949944239193e+08,  2.9800000000000000e+02,  1.4783573426342867e-02,  3.2674521207809245e-05,  1.4783573426340773e-02,  3.7485733628273173e-05
 9.1298466339700008e+02,  1.5757165988630167e-02, -3.1668333335544141e-02, -4.0911544189626992e+08, -3.1668333335544141e-02, -4.0911544189626992e+08, -3.2180619538395433e-02, -3.9652089915242743e+08,  2.9800000000000000e+02,  1.5634310735172428e-02, -5.8017671108245999e-05,  1.5634310735170381e-02, -6.1307102441787557e-05
 9.6098133006700004e+02,  1.6623196511721908e-02, -3.3335000002326552e-02, -4.1798750628006899e+08, -3.3335000002326552e-02, -4.1798750628006899e+08, -3.3903275817505484e-02, -4.0442991402207196e+08,  2.9800000000000000e+02,  1.6486543507627419e-02, -1.3850629329681647e-05,  1.6486543507625420e-02, -1.8548220396041609e-05
 1.0089779967370000e+03,  1.7491492237832761e-02, -3.5001666669108970e-02, -4.2687710322831237e+08, -3.5001666669108970e-02, -4.2687710322831237e+08, -3.5628904762890150e-02, -4.1232653809428370e+08,  2.9800000000000000e+02,  1.7340276862636603e-02,  3.9413571357724408e-06,  1.7340276862634871e-02,  1.1499971151352217e-05
 1.0569746634070000e+03,  1.8362062948594354e-02, -3.6668333335891382e-02, -4.3578431898345757e+08, -3.6668333335891382e-02, -4.3578431898345757e+08, -3.7357516651727249e-02, -4.2021076541866601e+08,  2.9800000000000000e+02,  1.8195515945631947e-02, -1.7981976270675652e-05,  1.8195515945630208e-02, -1.8630176782608012e-05
 1.1049713300770002e+03,  1.9234918484906695e-02, -3.8335000002673793e-02, -4.4470924039140612e+08, -3.8335000002673793e-02, -4.4470924039140612e+08, -3.9089121814582170e-02, -4.2808259005152565e+08,  2.9800000000000000e+02,  1.9052265928731524e-02, -4.4371932744979709e-05,  1.9052265928729783e-02, -3.6906450986862291e-05
 1.1529679967470001e+03,  2.0110068747401854e-02, -4.0001666669456218e-02, -4.5365195490681422e+08, -4.0001666669456218e-02, -4.5365195490681422e+08, -4.0823730635779099e-02, -4.3594200605594629e+08,  2.9800000000000000e+02,  1.9910532010925002e-02,  2.2545456886291362e-05,  1.9910532010923115e-02,  1.8887221813202026e-05
 1.2009646634170001e+03,  2.0987523696910329e-02, -4.1668333336238629e-02, -4.6261255059867752e+08, -4.1668333336238629e-02, -4.6261255059867752e+08, -4.2561353553774599e-02, -4.4378900750207323e+08,  2.9800000000000000e+02,  2.0770319418259558e-02, -1.7359852790831029e-06,  2.0770319418257785e-02,  6.4298510551451485e-06
 1.2489613300870001e+03,  2.1867293354934151e-02, -4.3335000003021047e-02, -4.7159111615518105e+08, -4.3335000003021047e-02, -4.7159111615518105e+08, -4.4302001061534167e-02, -4.5162358846663612e+08,  2.9800000000000000e+02,  2.1631633404030071e-02, -8.9071691036225314e-06,  2.1631633404028218e-02, -8.7730586528777636e-06
 1.2969579967570000e+03,  2.2749387804121047e-02, -4.5001666669803458e-02, -4.8058774088940990e+08, -4.5001666669803458e-02, -4.8058774088940990e+08, -4.6045683706912297e-02, -4.5944574303324896e+08,  2.9800000000000000e+02,  2.2494479248967560e-02,  3.7934631109237712e-05,  2.2494479248965603e-02,  3.4466385841369520e-05
 1.3449546634270000e+03,  2.3633817188747370e-02, -4.6668333336585877e-02, -4.8960251474502891e+08, -4.6668333336585877e-02, -4.8960251474502891e+08, -4.7792412093036751e-02, -4.6725546529262054e+08,  2.9800000000000000e+02,  2.3358862261431312e-02, -4.2852014303207275e-05,  2.3358862261429365e-02, -3.9234757423400987e-05
 1.3929513300970002e+03,  2.4520591715201968e-02, -4.8335000003368288e-02, -4.9863552830108988e+08, -4.8335000003368288e-02, -4.9863552830108988e+08, -4.9542196878694163e-02, -4.7505274934187925e+08,  2.9800000000000000e+02,  2.4224787777603618e-02,  4.6823173761367771e-05,  2.4224787777601377e-02,  3.3609569072723429e-05
 1.4409479967670002e+03,  2.5409721652476222e-02, -5.0001666670150713e-02, -5.0768687277867854e+08, -5.0001666670150713e-02, -5.0768687277867854e+08, -5.1295048778721736e-02, -4.8283758928559774e+08,  2.9800000000000000e+02,  2.5092261161682006e-02,  1.2639909982681274e-05,  2.5092261161679785e-02,  8.0987811088561876e-06
 1.4889446634370001e+03,  2.6301217332661001e-02, -5.1668333336933124e-02, -5.1675664004551107e+08, -5.1668333336933124e-02, -5.1675664004551107e+08, -5.3050978564399831e-02, -4.9060997923480433e+08,  2.9800000000000000e+02,  2.5961287806079553e-02,  5.5491924285888672e-05,  2.5961287806077392e-02,  5.6348741054534871e-05
 1.5369413301070001e+03,  2.7195089151443003e-02, -5.3335000003715542e-02, -5.2584492262254870e+08, -5.3335000003715542e-02, -5.2584492262254870e+08, -5.4809997063850036e-02, -4.9836991330786353e+08,  2.9800000000000000e+02,  2.6831873131620339e-02, -4.6696513891220133e-05,  2.6831873131618222e-02, -5.0298869609832730e-05
 1.5849379967770001e+03,  2.8091347568612000e-02, -5.5001666670497953e-02, -5.3495181368882823e+08, -5.5001666670497953e-02, -5.3495181368882823e+08, -5.6572115162434149e-02, -5.0611738562959802e+08,  2.9800000000000000e+02,  2.7704022587742440e-02, -4.4126063585281304e-05,  2.7704022587740421e-02, -4.4878572225570679e-05
 1.6329346634470000e+03,  2.8990003108569144e-02, -5.6668333337280372e-02, -5.4407740708812487e+08, -5.6668333337280372e-02, -5.4407740708812487e+08, -5.8337343803160593e-02, -5.1385239033209729e+08,  2.9800000000000000e+02,  2.8577741652698010e-02,  2.1655112504959188e-05,  2.8577741652695908e-02,  8.3446502685545588e-06
 1.6809313301170000e+03,  2.9891066360840577e-02, -5.8335000004062783e-02, -5.5322179733461869e+08, -5.8335000004062783e-02, -5.5322179733461869e+08, -6.0105693987090619e-02, -5.2157492155451769e+08,  2.9800000000000000e+02,  2.9453035833757142e-02, -1.3735145330428847e-05,  2.9453035833754977e-02, -2.5529414415359660e-05
 1.7289279967870002e+03,  3.0794547980597966e-02, -6.0001666670845201e-02, -5.6238507961844373e+08, -6.0001666670845201e-02, -5.6238507961844373e+08, -6.1877176773750077e-02, -5.2928497344271487e+08,  2.9800000000000000e+02,  3.0329910667415326e-02, -3.7737190723418376e-06,  3.0329910667413116e-02, -1.3157725334167575e-05
 1.7769246634570002e+03,  3.1700458689182538e-02, -6.1668333337627626e-02, -5.7156734981220341e+08, -6.1668333337627626e-02, -5.7156734981220341e+08, -6.3651803281544142e-02, -5.3698254014973056e+08,  2.9800000000000000e+02,  3.1208371719599313e-02,  3.1031668186188015e-06,  3.1208371719597186e-02,  6.7465007305144993e-06
 1.8249213301270001e+03,  3.2608809274634235e-02, -6.3335000004410044e-02, -5.8076870447682965e+08, -6.3335000004410044e-02, -5.8076870447682965e+08, -6.5429584688177139e-02, -5.4466761583559680e+08,  2.9800000000000000e+02,  3.2088424585877122e-02, -1.2814998626707765e-06,  3.2088424585874978e-02,  5.6885182857511937e-06
 1.8729179967970001e+03,  3.3519610592226801e-02, -6.5001666671192448e-02, -5.8998924086774647e+08, -6.5001666671192448e-02, -5.8998924086774647e+08, -6.7210532231073469e-02, -5.5234019466736805e+08,  2.9800000000000000e+02,  3.2970074891668699e-02, -2.8811395168304443e-05,  3.2970074891666562e-02, -2.2791326045989977e-05
 1.9209146634670001e+03,  3.4432873565007384e-02, -6.6668333337974867e-02, -5.9922905694096708e+08, -6.6668333337974867e-02, -5.9922905694096708e+08, -6.8994657207804400e-02, -5.6000027081902754e+08,  2.9800000000000000e+02,  3.3853328292459857e-02,  3.5122036933899061e-05,  3.3853328292457831e-02,  3.1158328056335300e-05
 1.9689113301370000e+03,  3.5348609184342426e-02, -6.8335000004757285e-02, -6.0848825135981035e+08, -6.8335000004757285e-02, -6.0848825135981035e+08, -7.0781970976519143e-02, -5.6764783847191238e+08,  2.9800000000000000e+02,  3.4738190474016321e-02,  3.3564865589142185e-06,  3.4738190474014233e-02, -5.4463744163513997e-06
 2.0169079968070002e+03,  3.6266828510468009e-02, -7.0001666671539703e-02, -6.1776692350063312e+08, -7.0001666671539703e-02, -6.1776692350063312e+08, -7.2572484956376734e-02, -5.7528289181415331e+08,  2.9800000000000000e+02,  3.5624667152601375e-02, -2.4627894163131544e-05,  3.5624667152599314e-02, -2.2985041141510139e-05
 2.0649046634770002e+03,  3.7187542673045228e-02, -7.1668333338322121e-02, -6.2706517345965457e+08, -7.1668333338322121e-02, -6.2706517345965457e+08, -7.4366210627984389e-02, -5.8290542504107356e+08,  2.9800000000000000e+02,  3.6512764075194284e-02, -3.1758099794387878e-05,  3.6512764075192258e-02, -2.9187649488448995e-05
 2.1129013301470000e+03,  3.8110762871723276e-02, -7.3335000005104539e-02, -6.3638310205933654e+08, -7.3335000005104539e-02, -6.3638310205933654e+08, -7.6163159533841063e-02, -5.9051543235510552e+08,  2.9800000000000000e+02,  3.7402487019711383e-02, -1.5825033187866221e-05,  3.7402487019709510e-02, -1.1835247278213494e-05
 2.1608979968170001e+03,  3.9036500376705162e-02, -7.5001666671886943e-02, -6.4572081085501683e+08, -7.5001666671886943e-02, -6.4572081085501683e+08, -7.7963343278780406e-02, -5.9811290796588123e+08,  2.9800000000000000e+02,  3.8293841795228489e-02, -5.3819268941879259e-05,  3.8293841795226810e-02, -3.8795173168182387e-05
 2.2088946634870003e+03,  3.9964766529321856e-02, -7.6668333338669362e-02, -6.5507840214129353e+08, -7.6668333338669362e-02, -6.5507840214129353e+08, -7.9766773530422483e-02, -6.0569784609002113e+08,  2.9800000000000000e+02,  3.9186834242206738e-02, -4.8723071813583408e-05,  3.9186834242205038e-02, -4.2274594306945652e-05
 2.2568913301570001e+03,  4.0895572742608674e-02, -7.8335000005451794e-02, -6.6445597895894217e+08, -7.8335000005451794e-02, -6.6445597895894217e+08, -8.1573462019625648e-02, -6.1327024095135570e+08,  2.9800000000000000e+02,  4.0081470232717797e-02,  6.8359076976775310e-06,  4.0081470232716188e-02,  1.4781951904296990e-05
 2.3048879968270003e+03,  4.1828930501892708e-02, -8.0001666672234198e-02, -6.7385364510175884e+08, -8.0001666672234198e-02, -6.7385364510175884e+08, -8.3383420540946496e-02, -6.2083008678100681e+08,  2.9800000000000000e+02,  4.0977755670674319e-02,  2.7991831302642768e-05,  4.0977755670672564e-02,  2.3178756237030029e-05
 2.3528846634970000e+03,  4.2764851365378859e-02, -8.1668333339016616e-02, -6.8327150512317717e+08, -8.1668333339016616e-02, -6.8327150512317717e+08, -8.5196660953100120e-02, -6.2837737781719291e+08,  2.9800000000000000e+02,  4.1875696492059390e-02, -1.2379139661788995e-05,  4.1875696492057690e-02, -1.2483447790145752e-05
 2.4008813301670002e+03,  4.3703346964749763e-02, -8.3335000005799020e-02, -6.9270966434318113e+08, -8.3335000005799020e-02, -6.9270966434318113e+08, -8.7013195179427197e-02, -6.3591210830523956e+08,  2.9800000000000000e+02,  4.2775298665161603e-02, -1.8060207366943346e-05,  4.2775298665159868e-02, -1.8257647752761820e-05
 2.4488779968370000e+03,  4.4644429005764374e-02, -8.5001666672581452e-02, -7.0216822885549235e+08, -8.5001666672581452e-02, -7.0216822885549235e+08, -8.8833035208363692e-02, -6.4343427249777400e+08,  2.9800000000000000e+02,  4.3676568190808326e-02, -3.1180679798124730e-06,  4.3676568190806689e-02,  7.3052942752836712e-06
 2.4968746635070002e+03,  4.5588109268869290e-02, -8.6668333339363857e-02, -7.1164730553457892e+08, -8.6668333339363857e-02, -7.1164730553457892e+08, -9.0656193093916773e-02, -6.5094386465468073e+08,  2.9800000000000000e+02,  4.4579511102604573e-02,  1.9155442714691149e-05,  4.4579511102602797e-02,  1.9878149032592692e-05
 2.5448713301770003e+03,  4.6534399609809075e-02, -8.8335000006146275e-02, -7.2114700204278743e+08, -8.8335000006146275e-02, -7.2114700204278743e+08, -9.2482680956142954e-02, -6.5844087904310429e+08,  2.9800000000000000e+02,  4.5484133467170854e-02, -1.3194978237152073e-05,  4.5484133467169209e-02, -1.1216849088668850e-05
 2.5928679968470001e+03,  4.7483311960249408e-02, -9.0001666672928693e-02, -7.3066742683739805e+08, -9.0001666672928693e-02, -7.3066742683739805e+08, -9.4312510981631348e-02, -6.6592530993730533e+08,  2.9800000000000000e+02,  4.6390441384386596e-02,  2.3022294044495442e-06,  4.6390441384385167e-02,  7.2680413722990724e-06
 2.6408646635170003e+03,  4.8434858328402809e-02, -9.1668333339711097e-02, -7.4020868917826796e+08, -9.1668333339711097e-02, -7.4020868917826796e+08, -9.6145695423992608e-02, -6.7339715161898589e+08,  2.9800000000000000e+02,  4.7298440987633139e-02,  5.9902667999268933e-06,  4.7298440987631661e-02,  3.7252902984564931e-08
 2.6888613301870000e+03,  4.9389050799660564e-02, -9.3335000006493515e-02, -7.4977089913493729e+08, -9.3335000006493515e-02, -7.4977089913493729e+08, -9.7982246604349413e-02, -6.8085639837704563e+08,  2.9800000000000000e+02,  4.8208138444039643e-02,  9.7714364528657768e-06,  4.8208138444038186e-02,  2.3916363716123320e-06
 2.7368579968570002e+03,  5.0345901537233638e-02, -9.5001666673275920e-02, -7.5935416759421909e+08, -9.5001666673275920e-02, -7.5935416759421909e+08, -9.9822176911835939e-02, -6.8830304450771070e+08,  2.9800000000000000e+02,  4.9119539954732581e-02,  2.0258128643035997e-05,  4.9119539954731076e-02,  2.2601336240768419e-05
 2.7848546635270004e+03,  5.1305422782796734e-02, -9.6668333340058352e-02, -7.6895860626785707e+08, -9.6668333340058352e-02, -7.6895860626785707e+08, -1.0166549880409713e-01, -6.9573708431464291e+08,  2.9800000000000000e+02,  5.0032651755085034e-02, -5.8531761169433438e-05,  5.0032651755083320e-02, -6.7472457885742364e-05
 2.8328513301970002e+03,  5.2267626857141522e-02, -9.8335000006840770e-02, -7.7858432769964182e+08, -9.8335000006840770e-02, -7.7858432769964182e+08, -1.0351222480779548e-01, -7.0315851210848582e+08,  2.9800000000000000e+02,  5.0947480114971341e-02, -2.1271407604216445e-06,  5.0947480114969662e-02, -1.8514692783357339e-06
 2.8808479968670003e+03,  5.3232526160835757e-02, -1.0000166667362319e-01, -7.8823144527402604e+08, -1.0000166667362319e-01, -7.8823144527402604e+08, -1.0536236751912233e-01, -7.1056732220769143e+08,  2.9800000000000000e+02,  5.1864031339020587e-02, -8.5830688476563178e-06,  5.1864031339018873e-02, -1.1257827281951864e-05
 2.9288446635370001e+03,  5.4200133174887470e-02, -1.0166833334040561e-01, -7.9790007322314262e+08, -1.0166833334040561e-01, -7.9790007322314262e+08, -1.0721593960431264e-01, -7.1796350893782163e+08,  2.9800000000000000e+02,  5.2782311766875964e-02, -3.8690865039825426e-05,  5.2782311766874167e-02, -4.9963593482971124e-05
 2.9768413302070003e+03,  5.5170460461420136e-02, -1.0333500000718801e-01, -8.0759032663492191e+08, -1.0333500000718801e-01, -8.0759032663492191e+08, -1.0907295380016525e-01, -7.2534706663176668e+08,  2.9800000000000000e+02,  5.3702327773454267e-02, -6.6645443439484727e-06,  5.3702327773452511e-02, -1.2405216693878147e-05
 3.0248379968770000e+03,  5.6143520664349321e-02, -1.0500166667397043e-01, -8.1730232146136713e+08, -1.0500166667397043e-01, -8.1730232146136713e+08, -1.1093342291456927e-01, -7.3271798963002586e+08,  2.9800000000000000e+02,  5.4624085769208186e-02, -2.3692846298217679e-05,  5.4624085769206611e-02, -2.0645558834076036e-05
 3.0728346635470002e+03,  5.7119326510070366e-02, -1.0666833334075283e-01, -8.2703617452610207e+08, -1.0666833334075283e-01, -8.2703617452610207e+08, -1.1279735982703194e-01, -7.4007627228025365e+08,  2.9800000000000000e+02,  5.5547592200391994e-02,  6.0442835092544610e-05,  5.5547592200390211e-02,  4.9535185098648044e-05
 3.1208313302170004e+03,  5.8097890808151094e-02, -1.0833500000753526e-01, -8.3679200353316522e+08, -1.0833500000753526e-01, -8.3679200353316522e+08, -1.1466477748921593e-01, -7.4742190893784082e+08,  2.9800000000000000e+02,  5.6472853549327573e-02,  4.4897198677063124e-05,  5.6472853549326019e-02,  5.5667012929916273e-05
 3.1688279968870002e+03,  5.9079226452033305e-02, -1.1000166667431768e-01, -8.4656992707467067e+08, -1.1000166667431768e-01, -8.4656992707467067e+08, -1.1653568892547757e-01, -7.5475489396540141e+08,  2.9800000000000000e+02,  5.7399876334676386e-02,  4.9546360969544541e-06,  5.7399876334674908e-02,  1.6666948795318549e-05
 3.2168246635570003e+03,  6.0063346419739573e-02, -1.1166833334110009e-01, -8.5637006463938010e+08, -1.1166833334110009e-01, -8.5637006463938010e+08, -1.1841010723341290e-01, -7.6207522173298955e+08,  2.9800000000000000e+02,  5.8328667111711065e-02, -6.7204236984251574e-06,  5.8328667111709663e-02,  7.1935355663298883e-06
 3.2648213302270001e+03,  6.1050263774588935e-02, -1.1333500000788252e-01, -8.6619253662114787e+08, -1.1333500000788252e-01, -8.6619253662114787e+08, -1.2028804558440667e-01, -7.6938288661812174e+08,  2.9800000000000000e+02,  5.9259232472590358e-02,  9.2655420303344754e-05,  5.9259232472588616e-02,  8.6273998022079414e-05
 3.3128179968970003e+03,  6.2039991665918372e-02, -1.1500166667466491e-01, -8.7603746432788968e+08, -1.1500166667466491e-01, -8.7603746432788968e+08, -1.2216951722418992e-01, -7.7667788300617552e+08,  2.9800000000000000e+02,  6.0191579046635406e-02, -3.1106173992156982e-05,  6.0191579046633692e-02, -1.7195940017700290e-05
 3.3608146635670000e+03,  6.3032543329813839e-02, -1.1666833334144734e-01, -8.8590496998907244e+08, -1.1666833334144734e-01, -8.8590496998907244e+08, -1.2405453547339734e-01, -7.8396020528939080e+08,  2.9800000000000000e+02,  6.1125713500613625e-02,  7.0780515670784499e-07,  6.1125713500611752e-02, -8.7469816207887097e-06
 3.4088113302370002e+03,  6.4027932089846834e-02, -1.1833500000822975e-01, -8.9579517676572967e+08, -1.1833500000822975e-01, -8.9579517676572967e+08, -1.2594311372813638e-01, -7.9122984786802745e+08,  2.9800000000000000e+02,  6.2061642539017511e-02, -2.3990869522094564e-05,  6.2061642539015804e-02, -1.3723969459533854e-05
 3.4568079969070004e+03,  6.5026171357820406e-02, -1.2000166667501218e-01, -9.0570820875843883e+08, -1.2000166667501218e-01, -9.0570820875843883e+08, -1.2783526546055596e-01, -7.9848680514962554e+08,  2.9800000000000000e+02,  6.2999372904353354e-02,  2.1778047084808377e-05,  6.2999372904351550e-02,  9.4510614871979031e-06
 3.5048046635770002e+03,  6.6027274634522043e-02, -1.2166833334179460e-01, -9.1564419101668465e+08, -1.2166833334179460e-01, -9.1564419101668465e+08, -1.2973100421942452e-01, -8.0573107154940248e+08,  2.9800000000000000e+02,  6.3938911377427771e-02,  5.2370131015777615e-05,  6.3938911377426230e-02,  5.2154064178466851e-05
 3.5528013302470004e+03,  6.7031255510483695e-02, -1.2333500000857700e-01, -9.2560324954781747e+08, -1.2333500000857700e-01, -9.2560324954781747e+08, -1.3163034363071185e-01, -8.1296264149020767e+08,  2.9800000000000000e+02,  6.4880264777639196e-02, -2.8878450393676731e-05,  6.4880264777637892e-02, -2.8170645236969062e-05
 3.6007979969170001e+03,  6.8038127666751658e-02, -1.2500166667535942e-01, -9.3558551132572770e+08, -1.2500166667535942e-01, -9.3558551132572770e+08, -1.3353329739817599e-01, -8.2018150940212941e+08,  2.9800000000000000e+02,  6.5823439963272556e-02, -3.7550926208497178e-06,  6.5823439963271391e-02, -9.9018216133117676e-06
 3.6487946635870003e+03,  6.9047904875662841e-02, -1.2666833334214184e-01, -9.4559110430082917e+08, -1.2666833334214184e-01, -9.4559110430082917e+08, -1.3543987930395793e-01, -8.2738766972316682e+08,  2.9800000000000000e+02,  6.6768443831794352e-02,  1.8291175365448052e-05,  6.6768443831793256e-02,  1.4893710613250678e-05
 3.6967913302570005e+03,  7.0060601001629613e-02, -1.2833500000892425e-01, -9.5562015740902066e+08, -1.2833500000892425e-01, -9.5562015740902066e+08, -1.3735010320917890e-01, -8.3458111689890814e+08,  2.9800000000000000e+02,  6.7715283320152558e-02, -4.5947730541229248e-05,  6.7715283320151601e-02, -4.0352344512939290e-05
 3.7447879969270002e+03,  7.1076230001933347e-02, -1.3000166667570667e-01, -9.6567280058079529e+08, -1.3000166667570667e-01, -9.6567280058079529e+08, -1.3926398305454551e-01, -8.4176184538224578e+08,  2.9800000000000000e+02,  6.8663965405080282e-02,  4.3570995330810438e-05,  6.8663965405079380e-02,  5.1751732826232856e-05
 3.7927846635970004e+03,  7.2094805927526692e-02, -1.3166833334248909e-01, -9.7574916475176120e+08, -1.3166833334248909e-01, -9.7574916475176120e+08, -1.4118153286096213e-01, -8.4892984963422978e+08,  2.9800000000000000e+02,  6.9614497103398662e-02,  3.4049153327942708e-06,  6.9614497103397621e-02, -4.1648745536804741e-06
 3.8407813302670002e+03,  7.3116342923842406e-02, -1.3333500000927151e-01, -9.8584938187113833e+08, -1.3333500000927151e-01, -9.8584938187113833e+08, -1.4310276673014316e-01, -8.5608512412305892e+08,  2.9800000000000000e+02,  7.0566885472327159e-02,  2.7351081371307319e-05,  7.0566885472326021e-02,  2.2925436496734728e-05
 3.8887779969370004e+03,  7.4140855231614233e-02, -1.3500166667605390e-01, -9.9597358491245651e+08, -1.3500166667605390e-01, -9.9597358491245651e+08, -1.4502769884523981e-01, -8.6322766332489026e+08,  2.9800000000000000e+02,  7.1521137609793450e-02,  4.8875808715820367e-05,  7.1521137609792174e-02,  4.3243169784545953e-05
 3.9367746636070001e+03,  7.5168357187701235e-02, -1.3666833334283632e-01, -1.0061219078830420e+09, -1.3666833334283632e-01, -1.0061219078830420e+09, -1.4695634347146458e-01, -8.7035746172350335e+08,  2.9800000000000000e+02,  7.2477260654747425e-02,  4.4658780097961317e-05,  7.2477260654746065e-02,  3.4809112548828396e-05
 3.9847713302770003e+03,  7.6198863225926575e-02, -1.3833500000961874e-01, -1.0162944858340557e+09, -1.3833500000961874e-01, -1.0162944858340557e+09, -1.4888871495672765e-01, -8.7747451381033254e+08,  2.9800000000000000e+02,  7.3435261787478959e-02,  2.7142465114593425e-05,  7.3435261787477654e-02,  2.2158026695251546e-05
 4.0327679969470005e+03,  7.7232387877921749e-02, -1.4000166667640115e-01, -1.0264914548707017e+09, -1.4000166667640115e-01, -1.0264914548707017e+09, -1.5082482773227687e-01, -8.8457881408455646e+08,  2.9800000000000000e+02,  7.4395148229938063e-02, -6.7651271820069444e-06,  7.4395148229936661e-02, -2.0213425159454034e-05
 4.0807646636170002e+03,  7.8268945773981288e-02, -1.4166833334318360e-01, -1.0367129521623366e+09, -1.4166833334318360e-01, -1.0367129521623366e+09, -1.5276469631334438e-01, -8.9167035705299199e+08,  2.9800000000000000e+02,  7.5356927246058025e-02,  6.7055225372124718e-08,  7.5356927246056776e-02, -6.6533684730528836e-06
 4.1287613302870004e+03,  7.9308551643924766e-02, -1.4333500000996599e-01, -1.0469591159530602e+09, -1.4333500000996599e-01, -1.0469591159530602e+09, -1.5470833529979908e-01, -8.9874913723030794e+08,  2.9800000000000000e+02,  7.6320606142081540e-02,  1.8514692783355821e-05,  7.6320606142080347e-02,  9.9688768386839465e-06
 4.1767579969570006e+03,  8.0351220317970748e-02, -1.4500166667674841e-01, -1.0572300855720239e+09, -1.4500166667674841e-01, -1.0572300855720239e+09, -1.5665575937680706e-01, -9.0581514913888311e+08,  2.9800000000000000e+02,  7.7286192266890721e-02,  4.7042965888977186e-05,  7.7286192266889570e-02,  4.1738152503967231e-05
 4.2247546636269999e+03,  8.1396966727617134e-02, -1.4666833334353083e-01, -1.0675260014441887e+09, -1.4666833334353083e-01, -1.0675260014441887e+09, -1.5860698331549622e-01, -9.1286838730895114e+08,  2.9800000000000000e+02,  7.8253693012339476e-02,  5.6698918342590061e-06,  7.8253693012338449e-02,  2.3767352104187012e-06
 4.2727513302970001e+03,  8.2445805906534469e-02, -1.4833500001031322e-01, -1.0778470051006970e+09, -1.4833500001031322e-01, -1.0778470051006970e+09, -1.6056202197362862e-01, -9.1990884627830291e+08,  2.9800000000000000e+02,  7.9223115813590844e-02,  3.5054981708526747e-05,  7.9223115813590150e-02,  4.6856701374053955e-05
 4.3207479969670003e+03,  8.3497752991465626e-02, -1.5000166667709566e-01, -1.0881932391903133e+09, -1.5000166667709566e-01, -1.0881932391903133e+09, -1.6252089029628050e-01, -9.2693652059280157e+08,  2.9800000000000000e+02,  8.0194468149454995e-02,  3.1694769859314019e-05,  8.0194468149454190e-02,  2.2806227207184028e-05
 4.3687446636370005e+03,  8.4552823223136730e-02, -1.5166833334387808e-01, -1.0985648474898601e+09, -1.5166833334387808e-01, -1.0985648474898601e+09, -1.6448360331652570e-01, -9.3395140480592287e+08,  2.9800000000000000e+02,  8.1167757542732547e-02,  4.2721629142761258e-05,  8.1167757542731506e-02,  2.9474496841430610e-05
 4.4167413303070007e+03,  8.5611031947178173e-02, -1.5333500001066050e-01, -1.1089619749157419e+09, -1.5333500001066050e-01, -1.1089619749157419e+09, -1.6645017615613011e-01, -9.4095349347911787e+08,  2.9800000000000000e+02,  8.2142991560560749e-02,  4.2617321014402671e-06,  8.2142991560559500e-02, -1.1473894119262587e-05
 4.4647379969770000e+03,  8.6672394615054396e-02, -1.5500166667744292e-01, -1.1193847675348694e+09, -1.5500166667744292e-01, -1.1193847675348694e+09, -1.6842062402624927e-01, -9.4794278118155038e+08,  2.9800000000000000e+02,  8.3120177814762553e-02, -2.8371810913086168e-05,  8.3120177814761290e-02, -4.1060149669646905e-05
 4.5127346636470002e+03,  8.7736926785005331e-02, -1.5666833334422528e-01, -1.1298333725761445e+09, -1.5666833334422528e-01, -1.1298333725761445e+09, -1.7039496222813399e-01, -9.5491926249020088e+08,  2.9800000000000000e+02,  8.4099323962200129e-02,  4.4606626033782742e-05,  8.4099323962198977e-02,  3.7632882595062581e-05
 4.5607313303170004e+03,  8.8804644122996698e-02, -1.5833500001100773e-01, -1.1403079384423785e+09, -1.5833500001100773e-01, -1.1403079384423785e+09, -1.7237320615384547e-01, -9.6188293199021935e+08,  2.9800000000000000e+02,  8.5080437705130685e-02,  2.5838613510131673e-05,  8.5080437705129602e-02,  2.9958784580230794e-05
 4.6087279969870006e+03,  8.9875562403682399e-02, -1.6000166667779014e-01, -1.1508086147213612e+09, -1.6000166667779014e-01, -1.1508086147213612e+09, -1.7435537128697265e-01, -9.6883378427443981e+08,  2.9800000000000000e+02,  8.6063526791567146e-02, -7.4245035648345947e-05,  8.6063526791566120e-02, -6.4447522163391140e-05
 4.6567246636570007e+03,  9.0949697511375063e-02, -1.6166833334457256e-01, -1.1613355521975276e+09, -1.6166833334457256e-01, -1.1613355521975276e+09, -1.7634147320336052e-01, -9.7577181394329619e+08,  2.9800000000000000e+02,  8.7048599015642159e-02,  5.7741999626159885e-05,  8.7048599015641187e-02,  5.9545040130615180e-05
 4.7047213303270000e+03,  9.2027065441028788e-02, -1.6333500001135498e-01, -1.1718889028651562e+09, -1.6333500001135498e-01, -1.1718889028651562e+09, -1.7833152757184551e-01, -9.8269701560589635e+08,  2.9800000000000000e+02,  8.8035662217972502e-02, -3.2141804695129476e-05,  8.8035662217971350e-02, -4.2550265789031955e-05
 4.7527179969970002e+03,  9.3107682299232858e-02, -1.6500166667813737e-01, -1.1824688199386418e+09, -1.6500166667813737e-01, -1.1824688199386418e+09, -1.8032555015499507e-01, -9.8960938387851679e+08,  2.9800000000000000e+02,  8.9024724286033835e-02, -3.6582350730896091e-05,  8.9024724286032614e-02, -4.5612454414367689e-05
 4.8007146636670004e+03,  9.4191564305215345e-02, -1.6666833334491982e-01, -1.1930754578660426e+09, -1.6666833334491982e-01, -1.1930754578660426e+09, -1.8232355680985834e-01, -9.9650891338573563e+08,  2.9800000000000000e+02,  9.0015793154532231e-02, -2.2277235984801704e-06,  9.0015793154531121e-02,  1.1824071407318305e-05
 4.8487113303370006e+03,  9.5278727791858586e-02, -1.6833500001170223e-01, -1.2037089723411727e+09, -1.6833500001170223e-01, -1.2037089723411727e+09, -1.8432556348872270e-01, -1.0033955987602096e+09,  2.9800000000000000e+02,  9.1008876805783678e-02, -5.6982040405273451e-05,  9.1008876805782554e-02, -5.6535005569457872e-05
 4.8967079970069999e+03,  9.6369189206725200e-02, -1.7000166667848465e-01, -1.2143695203155291e+09, -1.7000166667848465e-01, -1.2143695203155291e+09, -1.8633158623987667e-01, -1.0102694346421949e+09,  2.9800000000000000e+02,  9.2003983270096332e-02, -1.3336539268493734e-05,  9.2003983270095430e-02, -4.7013163566589762e-06
 4.9447046636770001e+03,  9.7462965113096572e-02, -1.7166833334526704e-01, -1.2250572600118794e+09, -1.7166833334526704e-01, -1.2250572600118794e+09, -1.8834164120838345e-01, -1.0171304156803303e+09,  2.9800000000000000e+02,  9.3001120626155703e-02, -2.7298927307128825e-05,  9.3001120626154871e-02, -2.7261674404144396e-05
 4.9927013303470003e+03,  9.8560072191021669e-02, -1.7333500001204946e-01, -1.2357723509362531e+09, -1.7333500001204946e-01, -1.2357723509362531e+09, -1.9035574463685959e-01, -1.0239785365309551e+09,  2.9800000000000000e+02,  9.4000297001415545e-02,  1.8134713172912625e-05,  9.4000297001414837e-02,  2.1368265151977404e-05
 5.0406979970170005e+03,  9.9660527238377886e-02, -1.7500166667883188e-01, -1.2465149538916304e+09, -1.7500166667883188e-01, -1.2465149538916304e+09, -1.9237391286626260e-01, -1.0308137918587184e+09,  2.9800000000000000e+02,  9.5001520572490131e-02, -2.2456049919128364e-05,  9.5001520572489243e-02, -3.6880373954773017e-05
 5.0886946636870007e+03,  1.0076434717194374e-01, -1.7666833334561430e-01, -1.2572852309903078e+09, -1.7666833334561430e-01, -1.2572852309903078e+09, -1.9439616233668691e-01, -1.0376361763359489e+09,  2.9800000000000000e+02,  9.6004799565553439e-02,  1.8045306205749566e-05,  9.6004799565552662e-02,  2.0541250705718913e-05
 5.1366913303570000e+03,  1.0187154902848303e-01, -1.7833500001239672e-01, -1.2680833456680753e+09, -1.7833500001239672e-01, -1.2680833456680753e+09, -1.9642250958816662e-01, -1.0444456846434084e+09,  2.9800000000000000e+02,  9.7010142256739734e-02, -2.4229288101196289e-05,  9.7010142256738693e-02, -2.4847686290741048e-05
 5.1846879970270002e+03,  1.0298214996584372e-01, -1.8000166667917911e-01, -1.2789094626968272e+09, -1.8000166667917911e-01, -1.2789094626968272e+09, -1.9845297126148806e-01, -1.0512423114695935e+09,  2.9800000000000000e+02,  9.8017556972550379e-02, -2.3782253265380724e-05,  9.8017556972549241e-02, -2.1561980247497464e-05
 5.2326846636970004e+03,  1.0409616726406414e-01, -1.8166833334596155e-01, -1.2897637481988196e+09, -1.8166833334596155e-01, -1.2897637481988196e+09, -2.0048756409900934e-01, -1.0580260515112848e+09,  2.9800000000000000e+02,  9.9027052090263024e-02, -4.7296285629272407e-05,  9.9027052090261913e-02, -4.0277838706970256e-05
 5.2806813303670006e+03,  1.0521361832649659e-01, -1.8333500001274397e-01, -1.3006463696599658e+09, -1.8333500001274397e-01, -1.3006463696599658e+09, -2.0252630494548790e-01, -1.0647968994731508e+09,  2.9800000000000000e+02,  1.0003863603834645e-01,  4.6245753765106201e-05,  1.0003863603834538e-01,  4.8749148845672689e-05
 5.3286779970370008e+03,  1.0633452068094060e-01, -1.8500166667952639e-01, -1.3115574959444721e+09, -1.8500166667952639e-01, -1.3115574959444721e+09, -2.0456921074891918e-01, -1.0715548500683168e+09,  2.9800000000000000e+02,  1.0105231729687768e-01,  3.8243830204010010e-05,  1.0105231729687658e-01,  3.6470592021942193e-05
 5.3766746637070000e+03,  1.0745889198078949e-01, -1.8666833334630881e-01, -1.3224972973082573e+09, -1.8666833334630881e-01, -1.3224972973082573e+09, -2.0661629856138022e-01, -1.0782998980178008e+09,  2.9800000000000000e+02,  1.0206810439796610e-01, -5.4001808166503920e-05,  1.0206810439796488e-01, -6.4790248870849474e-05
 5.4246713303770002e+03,  1.0858675000619147e-01, -1.8833500001309120e-01, -1.3334659454133196e+09, -1.8833500001309120e-01, -1.3334659454133196e+09, -2.0866758553988410e-01, -1.0850320380505741e+09,  2.9800000000000000e+02,  1.0308600592618020e-01, -4.4547021389007609e-05,  1.0308600592617913e-01, -4.4919550418853760e-05
 5.4726679970470004e+03,  1.0971811266522184e-01, -1.9000166667987362e-01, -1.3444636133427176e+09, -1.9000166667987362e-01, -1.3444636133427176e+09, -2.1072308894724306e-01, -1.0917512649039900e+09,  2.9800000000000000e+02,  1.0410603051897849e-01,  4.5187771320343234e-05,  1.0410603051897752e-01,  4.9486756324767985e-05
 5.5206646637170006e+03,  1.1085299799506866e-01, -1.9166833334665603e-01, -1.3554904756151540e+09, -1.9166833334665603e-01, -1.3554904756151540e+09, -2.1278282615294050e-01, -1.0984575733237343e+09,  2.9800000000000000e+02,  1.0512818686714455e-01,  1.7084181308746446e-05,  1.0512818686714345e-01,  1.1980533599853516e-05
 5.5686613303870008e+03,  1.1199142416323328e-01, -1.9333500001343845e-01, -1.3665467081991825e+09, -1.9333500001343845e-01, -1.3665467081991825e+09, -2.1484681463401062e-01, -1.1051509580633187e+09,  2.9800000000000000e+02,  1.0615248371522903e-01,  9.3281269073487412e-06,  1.0615248371522810e-01,  6.9513916969299994e-06
 5.6166579970570001e+03,  1.1313340946874381e-01, -1.9500166668022087e-01, -1.3776324885289767e+09, -1.9500166668022087e-01, -1.3776324885289767e+09, -2.1691507197592944e-01, -1.1118314138847051e+09,  2.9800000000000000e+02,  1.0717892986199377e-01, -6.9007277488708659e-05,  1.0717892986199269e-01, -8.3304941654205227e-05
 5.6646546637270003e+03,  1.1427897234338180e-01, -1.9666833334700326e-01, -1.3887479955188153e+09, -1.9666833334700326e-01, -1.3887479955188153e+09, -2.1898761587351151e-01, -1.1184989355577264e+09,  2.9800000000000000e+02,  1.0820753416086093e-01, -4.0382146835327148e-06,  1.0820753416085985e-01, -9.8943710327148166e-06
 5.7126513303970005e+03,  1.1542813135292351e-01, -1.9833500001378571e-01, -1.3998934095794003e+09, -1.9833500001378571e-01, -1.3998934095794003e+09, -2.2106446413182163e-01, -1.1251535178608444e+09,  2.9800000000000000e+02,  1.0923830552036748e-01,  4.2766332626342990e-05,  1.0923830552036642e-01,  4.3883919715881131e-05
 5.7606479970670007e+03,  1.1658090519839567e-01, -2.0000166668056812e-01, -1.4110689126328721e+09, -2.0000166668056812e-01, -1.4110689126328721e+09, -2.2314563466709025e-01, -1.1317951555806909e+09,  2.9800000000000000e+02,  1.1027125290462365e-01, -3.9324164390564033e-05,  1.1027125290462271e-01, -2.7835369110107341e-05
 5.8086446637370000e+03,  1.1773731271734561e-01, -2.0166833334735054e-01, -1.4222746881282146e+09, -2.0166833334735054e-01, -1.4222746881282146e+09, -2.2523114550764073e-01, -1.1384238435117762e+09,  2.9800000000000000e+02,  1.1130638533377812e-01,  2.5644898414611803e-05,  1.1130638533377718e-01,  3.3386051654815620e-05
 5.8566413304070002e+03,  1.1889737288512525e-01, -2.0333500001413293e-01, -1.4335109210583403e+09, -2.0333500001413293e-01, -1.4335109210583403e+09, -2.2732101479482814e-01, -1.1450395764573808e+09,  2.9800000000000000e+02,  1.1234371188448430e-01, -1.2345612049102919e-05,  1.1234371188448328e-01,  4.3213367462173111e-07
 5.9046379970770004e+03,  1.2006110481619076e-01, -2.0500166668091538e-01, -1.4447777979751720e+09, -2.0500166668091538e-01, -1.4447777979751720e+09, -2.2941526078398436e-01, -1.1516423492286851e+09,  2.9800000000000000e+02,  1.1338324169037549e-01,  3.0472874641418728e-06,  1.1338324169037423e-01,  2.9727816581726345e-06
 5.9526346637470006e+03,  1.2122852776541562e-01, -2.0666833334769780e-01, -1.4560755070067806e+09, -2.0666833334769780e-01, -1.4560755070067806e+09, -2.3151390184537582e-01, -1.1582321566453757e+09,  2.9800000000000000e+02,  1.1442498394254193e-01, -1.4744699001312161e-05,  1.1442498394254066e-01, -1.1220574378967258e-05
 6.0006313304170008e+03,  1.2239966112942205e-01, -2.0833500001448021e-01, -1.4674042378736186e+09, -2.0833500001448021e-01, -1.4674042378736186e+09, -2.3361695646517006e-01, -1.1648089935353665e+09,  2.9800000000000000e+02,  1.1546894789001540e-01, -4.2490661144256551e-05,  1.1546894789001416e-01, -4.3988227844238308e-05
 6.0486279970870000e+03,  1.2357452444792466e-01, -2.1000166668126263e-01, -1.4787641819053316e+09, -2.1000166668126263e-01, -1.4787641819053316e+09, -2.3572444324641251e-01, -1.1713728547348158e+09,  2.9800000000000000e+02,  1.1651514284025735e-01,  4.7460198402405598e-06,  1.1651514284025617e-01,  6.1839818954467231e-06
 6.0966246637570002e+03,  1.2475313740509121e-01, -2.1166833334804500e-01, -1.4901555320581205e+09, -2.1166833334804500e-01, -1.4901555320581205e+09, -2.3783638091001472e-01, -1.1779237350884070e+09,  2.9800000000000000e+02,  1.1756357815965189e-01,  3.1165778636932265e-05,  1.1756357815965082e-01,  3.9659440517425510e-05
 6.1446213304270004e+03,  1.2593551983091927e-01, -2.1333500001482744e-01, -1.5015784829316430e+09, -2.1333500001482744e-01, -1.5015784829316430e+09, -2.3995278829575159e-01, -1.1844616294490919e+09,  2.9800000000000000e+02,  1.1861426327400561e-01,  3.4630298614501926e-05,  1.1861426327400451e-01,  3.2596290111541911e-05
 6.1926179970970006e+03,  1.2712169170262796e-01, -2.1500166668160986e-01, -1.5130332307865722e+09, -2.1500166668160986e-01, -1.5130332307865722e+09, -2.4207368436326893e-01, -1.1909865326781871e+09,  2.9800000000000000e+02,  1.1966720766905084e-01, -3.0919909477233751e-06,  1.1966720766904958e-01, -1.8879771232604967e-05
 6.2406146637670008e+03,  1.2831167314606765e-01, -2.1666833334839228e-01, -1.5245199735621357e+09, -2.1666833334839228e-01, -1.5245199735621357e+09, -2.4419908819310429e-01, -1.1974984396452703e+09,  2.9800000000000000e+02,  1.2072242089095614e-01,  3.6507844924922692e-07,  1.2072242089095521e-01,  1.8142163753509576e-05
 6.2886113304370001e+03,  1.2950548443714438e-01, -2.1833500001517470e-01, -1.5360389108944540e+09, -2.1833500001517470e-01, -1.5360389108944540e+09, -2.4632901898771548e-01, -1.2039973452285364e+09,  2.9800000000000000e+02,  1.2177991254684090e-01, -2.5257468223571899e-05,  1.2177991254683991e-01, -1.5333294868469238e-05
 6.3366079971070003e+03,  1.3070314600326255e-01, -2.2000166668195709e-01, -1.5475902441340690e+09, -2.2000166668195709e-01, -1.5475902441340690e+09, -2.4846349607252216e-01, -1.2104832443143263e+09,  2.9800000000000000e+02,  1.2283969230529571e-01,  4.0687620639801012e-05,  1.2283969230529480e-01,  5.6281685829162598e-05
 6.3846046637770005e+03,  1.3190467842478346e-01, -2.2166833334873953e-01, -1.5591741763651090e+09, -2.2166833334873953e-01, -1.5591741763651090e+09, -2.5060253889695860e-01, -1.2169561317977691e+09,  2.9800000000000000e+02,  1.2390176989690793e-01, -2.4810433387757432e-06,  1.2390176989690693e-01,  1.1324882507324490e-06
 6.4326013304470007e+03,  1.3311010243650134e-01, -2.2333500001552195e-01, -1.5707909124229007e+09, -2.2333500001552195e-01, -1.5707909124229007e+09, -2.5274616703553521e-01, -1.2234160025820103e+09,  2.9800000000000000e+02,  1.2496615511479442e-01,  4.0031969547271620e-05,  1.2496615511479335e-01,  3.0688941478729397e-05
 6.4805979971170009e+03,  1.3431943892913681e-01, -2.2500166668230437e-01, -1.5824406589137239e+09, -2.2500166668230437e-01, -1.5824406589137239e+09, -2.5489440018891452e-01, -1.2298628515789387e+09,  2.9800000000000000e+02,  1.2603285781513762e-01,  6.7710876464843723e-05,  1.2603285781513665e-01,  7.3149800300598199e-05
 6.5285946637870002e+03,  1.3553270895084940e-01, -2.2666833334908679e-01, -1.5941236242334771e+09, -2.2666833334908679e-01, -1.5941236242334771e+09, -2.5704725818499824e-01, -1.2362966737088642e+09,  2.9800000000000000e+02,  1.2710188791772992e-01,  5.9843063354492269e-05,  1.2710188791772900e-01,  6.2316656112670898e-05
 6.5765913304570004e+03,  1.3674993370876504e-01, -2.2833500001586918e-01, -1.6058400185869389e+09, -2.2833500001586918e-01, -1.6058400185869389e+09, -2.5920476098002326e-01, -1.2427174639004726e+09,  2.9800000000000000e+02,  1.2817325540652216e-01,  7.2851777076721219e-05,  1.2817325540652105e-01,  6.3128769397735569e-05
 6.6245879971270006e+03,  1.3797113457052526e-01, -2.3000166668265160e-01, -1.6175900540077369e+09, -2.3000166668265160e-01, -1.6175900540077369e+09, -2.6136692865967426e-01, -1.2491252170911305e+09,  2.9800000000000000e+02,  1.2924697033017821e-01, -2.7000904083252102e-05,  1.2924697033017707e-01, -3.8884580135345351e-05
 6.6725846637970008e+03,  1.3919633306585172e-01, -2.3166833334943401e-01, -1.6293739443773768e+09, -2.3166833334943401e-01, -1.6293739443773768e+09, -2.6353378144020273e-01, -1.2555199282262707e+09,  2.9800000000000000e+02,  1.3032304280263707e-01,  7.0460140705108588e-05,  1.3032304280263626e-01,  7.9847872257232747e-05
 6.7205813304670000e+03,  1.4042555088813102e-01, -2.3333500001621643e-01, -1.6411919054468341e+09, -2.3333500001621643e-01, -1.6411919054468341e+09, -2.6570533966956389e-01, -1.2619015922605529e+09,  2.9800000000000000e+02,  1.3140148300367818e-01,  1.3634562492370063e-06,  1.3140148300367735e-01,  3.9637088775634766e-06
 6.7685779971370002e+03,  1.4165880989601948e-01, -2.3500166668299882e-01, -1.6530441548552163e+09, -2.3500166668299882e-01, -1.6530441548552163e+09, -2.6788162382856123e-01, -1.2682702041565621e+09,  2.9800000000000000e+02,  1.3248230117949633e-01, -2.3767352104187269e-05,  1.3248230117949539e-01, -2.9236078262328776e-05
 6.8165746638070004e+03,  1.4289613211506466e-01, -2.3666833334978124e-01, -1.6649309121514707e+09, -2.3666833334978124e-01, -1.6649309121514707e+09, -2.7006265453200595e-01, -1.2746257588856492e+09,  2.9800000000000000e+02,  1.3356550764328046e-01,  3.2559037208556316e-06,  1.3356550764327926e-01, -1.0825693607330268e-05
 6.8645713304770006e+03,  1.4413753973934798e-01, -2.3833500001656369e-01, -1.6768523988150954e+09, -2.3833500001656369e-01, -1.6768523988150954e+09, -2.7224845252988977e-01, -1.2809682514277976e+09,  2.9800000000000000e+02,  1.3465111277579891e-01,  1.5579164028167792e-05,  1.3465111277579772e-01,  7.3909759521484511e-06
 6.9125679971470008e+03,  1.4538305513314725e-01, -2.4000166668334610e-01, -1.6888088382771642e+09, -2.4000166668334610e-01, -1.6888088382771642e+09, -2.7443903870856756e-01, -1.2872976767715135e+09,  2.9800000000000000e+02,  1.3573912702599270e-01,  1.4014542102813721e-05,  1.3573912702599161e-01,  1.3612210750579739e-05
 6.9605646638170001e+03,  1.4663270083261859e-01, -2.4166833335012852e-01, -1.7008004559418020e+09, -2.4166833335012852e-01, -1.7008004559418020e+09, -2.7663443409195654e-01, -1.2936140299138563e+09,  2.9800000000000000e+02,  1.3682956091157358e-01,  4.0814280509948500e-05,  1.3682956091157247e-01,  3.8698315620422553e-05
 7.0085613304870003e+03,  1.4788649954749861e-01, -2.4333500001691091e-01, -1.7128274792081795e+09, -2.4333500001691091e-01, -1.7128274792081795e+09, -2.7883465984274536e-01, -1.2999173058606441e+09,  2.9800000000000000e+02,  1.3792242501962898e-01, -3.6090612411499078e-05,  1.3792242501962798e-01, -1.9237399101257297e-05
 7.0565579971570005e+03,  1.4914447416282969e-01, -2.4500166668369333e-01, -1.7248901374920087e+09, -2.4500166668369333e-01, -1.7248901374920087e+09, -2.8103973726361964e-01, -1.3062074996260538e+09,  2.9800000000000000e+02,  1.3901773000723583e-01, -4.0516257286071655e-05,  1.3901773000723480e-01, -4.3295323848724379e-05
 7.1045546638270007e+03,  1.5040664774070112e-01, -2.4666833335047575e-01, -1.7369886622483833e+09, -2.4666833335047575e-01, -1.7369886622483833e+09, -2.8324968779849846e-01, -1.3124846062330370e+09,  2.9800000000000000e+02,  1.4011548660207720e-01,  1.5944242477416992e-06,  1.4011548660207629e-01,  4.1723251342772218e-06
 7.1525513304970009e+03,  1.5167304352201744e-01, -2.4833500001725817e-01, -1.7491232869944415e+09, -2.4833500001725817e-01, -1.7491232869944415e+09, -2.8546453303378655e-01, -1.3187486207133579e+09,  2.9800000000000000e+02,  1.4121570560306865e-01, -5.1870942115783719e-05,  1.4121570560306770e-01, -5.1505863666534261e-05
 7.2005479971670002e+03,  1.5294368492828328e-01, -2.5000166668404061e-01, -1.7612942473315623e+09, -2.5000166668404061e-01, -1.7612942473315623e+09, -2.8768429469963758e-01, -1.3249995381070619e+09,  2.9800000000000000e+02,  1.4231839788099160e-01,  2.0146369934082153e-05,  1.4231839788099046e-01,  1.7106533050536947e-05
 7.2485446638370004e+03,  1.5421859556341358e-01, -2.5166833335082300e-01, -1.7735017809696193e+09, -2.5166833335082300e-01, -1.7735017809696193e+09, -2.8990899467123582e-01, -1.3312373534632630e+09,  2.9800000000000000e+02,  1.4342357437913109e-01,  4.4956803321838650e-05,  1.4342357437912998e-01,  4.4547021389007352e-05
 7.2965413305070006e+03,  1.5549779921556478e-01, -2.5333500001760539e-01, -1.7857461277498286e+09, -2.5333500001760539e-01, -1.7857461277498286e+09, -2.9213865497008851e-01, -1.3374620618396344e+09,  2.9800000000000000e+02,  1.4453124611392437e-01, -1.1831521987915053e-05,  1.4453124611392332e-01, -6.3553452491760932e-06
 7.3445379971770008e+03,  1.5678131985898686e-01, -2.5500166668438784e-01, -1.7980275296685667e+09, -2.5500166668438784e-01, -1.7980275296685667e+09, -2.9437329776533239e-01, -1.3436736583023963e+09,  2.9800000000000000e+02,  1.4564142417561410e-01, -1.6801059246063056e-05,  1.4564142417561293e-01, -2.9265880584717000e-05
 7.3925346638470010e+03,  1.5806918165590178e-01, -2.5666833335117023e-01, -1.8103462309019387e+09, -2.5666833335117023e-01, -1.8103462309019387e+09, -2.9661294537505817e-01, -1.3498721379266238e+09,  2.9800000000000000e+02,  1.4675411972890912e-01, -1.1518597602844374e-05,  1.4675411972890795e-01, -1.3455748558044352e-05
 7.4405313305170002e+03,  1.5936140895840278e-01, -2.5833500001795268e-01, -1.8227024778300798e+09, -2.5833500001795268e-01, -1.8227024778300798e+09, -2.9885762026764839e-01, -1.3560574957961073e+09,  2.9800000000000000e+02,  1.4786934401365440e-01,  2.2612512111663818e-05,  1.4786934401365329e-01,  2.8014183044433540e-05
 7.4885279971870004e+03,  1.6065802631037554e-01, -2.6000166668473507e-01, -1.8350965190621901e+09, -2.6000166668473507e-01, -1.8350965190621901e+09, -3.0110734506312731e-01, -1.3622297270035217e+09,  2.9800000000000000e+02,  1.4898710834550505e-01, -4.9471855163574192e-05,  1.4898710834550394e-01, -4.7244131565093926e-05
 7.5365246638570006e+03,  1.6195905844944852e-01, -2.6166833335151751e-01, -1.8475286054609966e+09, -2.6166833335151751e-01, -1.8475286054609966e+09, -3.0336214253453042e-01, -1.3683888266499052e+09,  2.9800000000000000e+02,  1.5010742411661349e-01,  2.8833746910095337e-05,  1.5010742411661215e-01,  2.6293098926544000e-05
 7.5845213305270008e+03,  1.6326453030896154e-01, -2.6333500001829990e-01, -1.8599989901694946e+09, -2.6333500001829990e-01, -1.8599989901694946e+09, -3.0562203560928808e-01, -1.3745347898455956e+09,  2.9800000000000000e+02,  1.5123030279631722e-01, -1.7859041690826633e-05,  1.5123030279631583e-01, -8.1881880760192329e-06
 7.6325179971970001e+03,  1.6457446701996270e-01, -2.6500166668508235e-01, -1.8725079286354406e+09, -2.6500166668508235e-01, -1.8725079286354406e+09, -3.0788704737062284e-01, -1.3806676117092237e+09,  2.9800000000000000e+02,  1.5235575593184172e-01,  6.2957406044006158e-05,  1.5235575593184003e-01,  5.7280063629150499e-05
 7.6805146638670003e+03,  1.6588889391322864e-01, -2.6666833335186474e-01, -1.8850556786388199e+09, -2.6666833335186474e-01, -1.8850556786388199e+09, -3.1015720105896510e-01, -1.3867872873686635e+09,  2.9800000000000000e+02,  1.5348379514900440e-01,  3.8929283618927056e-05,  1.5348379514900271e-01,  2.7336180210113580e-05
 7.7285113305370005e+03,  1.6720783652131077e-01, -2.6833500001864719e-01, -1.8976425003174300e+09, -2.6833500001864719e-01, -1.8976425003174300e+09, -3.1243252007338335e-01, -1.3928938119603121e+09,  2.9800000000000000e+02,  1.5461443215293280e-01, -1.8842518329620402e-05,  1.5461443215293141e-01, -8.8363885879516331e-06
 7.7765079972070007e+03,  1.6853132058060830e-01, -2.7000166668542958e-01, -1.9102686561942582e+09, -2.7000166668542958e-01, -1.9102686561942582e+09, -3.1471302797303202e-01, -1.3989871806294315e+09,  2.9800000000000000e+02,  1.5574767872878742e-01, -3.2328069210052666e-05,  1.5574767872878600e-01, -4.0970742702483968e-05
 7.8245046638770009e+03,  1.6985937203346424e-01, -2.7166833335221202e-01, -1.9229344112047677e+09, -2.7166833335221202e-01, -1.9229344112047677e+09, -3.1699874847861448e-01, -1.4050673885301535e+09,  2.9800000000000000e+02,  1.5688354674249277e-01, -1.5094876289367811e-05,  1.5688354674249141e-01, -2.1137297153472684e-05
 7.8725013305470002e+03,  1.7119201703028997e-01, -2.7333500001899441e-01, -1.9356400327245696e+09, -2.7333500001899441e-01, -1.9356400327245696e+09, -3.1928970547386309e-01, -1.4111344308254852e+09,  2.9800000000000000e+02,  1.5802204814147755e-01,  3.6165118217468180e-05,  1.5802204814147633e-01,  4.1507184505462646e-05
 7.9204979972170004e+03,  1.7252928193171713e-01, -2.7500166668577680e-01, -1.9483857905977011e+09, -2.7500166668577680e-01, -1.9483857905977011e+09, -3.2158592300703809e-01, -1.4171883026874833e+09,  2.9800000000000000e+02,  1.5916319495542366e-01, -5.3077936172485324e-05,  1.5916319495542247e-01, -3.8638710975646946e-05
 7.9684946638870006e+03,  1.7387119331077483e-01, -2.7666833335255919e-01, -1.9611719571642261e+09, -2.7666833335255919e-01, -1.9611719571642261e+09, -3.2388742529244119e-01, -1.4232289992966452e+09,  2.9800000000000000e+02,  1.6030699929702463e-01, -1.8306076526641791e-05,  1.6030699929702336e-01, -1.6912817955018716e-06
 8.0164913305570008e+03,  1.7521777795509677e-01, -2.7833500001934164e-01, -1.9739988072902780e+09, -2.7833500001934164e-01, -1.9739988072902780e+09, -3.2619423671194703e-01, -1.4292565158428020e+09,  2.9800000000000000e+02,  1.6145347336274932e-01, -2.8766691684722765e-05,  1.6145347336274793e-01, -2.6278197765350423e-05
 8.0644879972270010e+03,  1.7656906286915480e-01, -2.8000166668612408e-01, -1.9868666183964028e+09, -2.8000166668612408e-01, -1.9868666183964028e+09, -3.2850638181655445e-01, -1.4352708475244732e+09,  2.9800000000000000e+02,  1.6260262943361903e-01, -3.9771199226379503e-05,  1.6260262943361753e-01, -5.6877732276916504e-05
 8.1124846638970002e+03,  1.7792507527652113e-01, -2.8166833335290653e-01, -1.9997756704874980e+09, -2.8166833335290653e-01, -1.9997756704874980e+09, -3.3082388532795315e-01, -1.4412719895490901e+09,  2.9800000000000000e+02,  1.6375447987599004e-01, -1.4759600162506320e-05,  1.6375447987598876e-01, -7.4729323387145725e-06
 8.1604813305670004e+03,  1.7928584262216019e-01, -2.8333500001968892e-01, -2.0127262461831293e+09, -2.8333500001968892e-01, -2.0127262461831293e+09, -3.3314677214011074e-01, -1.4472599371331959e+09,  2.9800000000000000e+02,  1.6490903714234703e-01, -1.9848346710205105e-05,  1.6490903714234559e-01, -3.2633543014526367e-05
 8.2084779972369997e+03,  1.8065139257474952e-01, -2.8500166668647131e-01, -2.0257186307474937e+09, -2.8500166668647131e-01, -2.0257186307474937e+09, -3.3547506732087617e-01, -1.4532346855020783e+09,  2.9800000000000000e+02,  1.6606631377210532e-01,  1.8626451492336675e-07,  1.6606631377210399e-01,  6.5043568611143393e-06
 8.2564746639069999e+03,  1.8202175302903018e-01, -2.8666833335325370e-01, -2.0387531121208961e+09, -2.8666833335325370e-01, -2.0387531121208961e+09, -3.3780879611360298e-01, -1.4591962298901904e+09,  2.9800000000000000e+02,  1.6722632239242238e-01, -1.9989907741546495e-05,  1.6722632239242091e-01, -2.9467046260833822e-05
 8.3044713305770001e+03,  1.8339695210818771e-01, -2.8833500002003609e-01, -2.0518299809505088e+09, -2.8833500002003609e-01, -2.0518299809505088e+09, -3.4014798393879259e-01, -1.4651445655407450e+09,  2.9800000000000000e+02,  1.6838907571901909e-01,  6.6533684730528159e-06,  1.6838907571901768e-01,  7.5548887252806262e-06
 8.3524679972470003e+03,  1.8477701816626377e-01, -2.9000166668681854e-01, -2.0649495306227083e+09, -2.9000166668681854e-01, -2.0649495306227083e+09, -3.4249265639575444e-01, -1.4710796877061195e+09,  2.9800000000000000e+02,  1.6955458655700995e-01,  4.1715800762176432e-05,  1.6955458655700850e-01,  4.6081840991973985e-05
 8.4004646639170005e+03,  1.8616197979059851e-01, -2.9166833335360098e-01, -2.0781120572951288e+09, -2.9166833335360098e-01, -2.0781120572951288e+09, -3.4484283926428738e-01, -1.4770015916477387e+09,  2.9800000000000000e+02,  1.7072286780174348e-01, -1.0892748832702799e-05,  1.7072286780174195e-01, -7.8156590461730144e-06
 8.4484613305870007e+03,  1.8755186580430552e-01, -2.9333500002038337e-01, -2.0913178599289854e+09, -2.9333500002038337e-01, -2.0913178599289854e+09, -3.4719855850638037e-01, -1.4829102726358235e+09,  2.9800000000000000e+02,  1.7189393243965359e-01, -2.8312206268310628e-05,  1.7189393243965212e-01, -2.1003186702728082e-05
 8.4964579972570009e+03,  1.8894670526877877e-01, -2.9500166668716582e-01, -2.1045672403226204e+09, -2.9500166668716582e-01, -2.1045672403226204e+09, -3.4955984026793335e-01, -1.4888057259496861e+09,  2.9800000000000000e+02,  1.7306779354911922e-01,  7.3492527008056749e-05,  1.7306779354911764e-01,  6.5766274929046550e-05
 8.5444546639270011e+03,  1.9034652748623113e-01, -2.9666833335394827e-01, -2.1178605031454942e+09, -2.9666833335394827e-01, -2.1178605031454942e+09, -3.5192671088049909e-01, -1.4946879468779962e+09,  2.9800000000000000e+02,  1.7424446430133436e-01,  3.8094818592071479e-05,  1.7424446430133272e-01,  2.8759241104125895e-05
 8.5924513305970013e+03,  1.9175136200226697e-01, -2.9833500002073066e-01, -2.1311979559713111e+09, -2.9833500002073066e-01, -2.1311979559713111e+09, -3.5429919686304312e-01, -1.5005569307181003e+09,  2.9800000000000000e+02,  1.7542395796119009e-01,  4.6491622924803332e-06,  1.7542395796118862e-01,  1.6987323760986328e-05
 8.6404479972670015e+03,  1.9316123860848916e-01, -3.0000166668751310e-01, -2.1445799093133759e+09, -3.0000166668751310e-01, -2.1445799093133759e+09, -3.5667732492372872e-01, -1.5064126727765753e+09,  2.9800000000000000e+02,  1.7660628788816532e-01, -1.5430152416229302e-05,  1.7660628788816402e-01, -6.2435865402221138e-06
 8.6884446639369999e+03,  1.9457618734513726e-01, -3.0166833335429549e-01, -2.1580066766593347e+09, -3.0166833335429549e-01, -2.1580066766593347e+09, -3.5906112196171913e-01, -1.5122551683689985e+09,  2.9800000000000000e+02,  1.7779146753722905e-01,  4.7273933887481717e-05,  1.7779146753722777e-01,  4.1864812374115072e-05
 8.7364413306070001e+03,  1.9599623850376507e-01, -3.0333500002107788e-01, -2.1714785745072622e+09, -3.0333500002107788e-01, -2.1714785745072622e+09, -3.6145061506900494e-01, -1.5180844128203001e+09,  2.9800000000000000e+02,  1.7897951045975266e-01, -1.4901161194064497e-08,  1.7897951045975144e-01, -2.6822090148926865e-06
 8.7844379972770002e+03,  1.9742142262994927e-01, -3.0500166668786027e-01, -2.1849959224009256e+09, -3.0500166668786027e-01, -2.1849959224009256e+09, -3.6384583153224970e-01, -1.5239004014641938e+09,  2.9800000000000000e+02,  1.8017043030443453e-01,  9.3877315521242403e-06,  1.8017043030443319e-01,  1.5273690223693848e-06
 8.8324346639470004e+03,  1.9885177052603606e-01, -3.0666833335464266e-01, -2.1985590429672098e+09, -3.0666833335464266e-01, -2.1985590429672098e+09, -3.6624679883466088e-01, -1.5297031296437449e+09,  2.9800000000000000e+02,  1.8136424081823363e-01, -1.2360513210296631e-05,  1.8136424081823238e-01, -9.2387199401833785e-07
 8.8804313306170006e+03,  2.0028731325392271e-01, -3.0833500002142511e-01, -2.2121682619527907e+09, -3.0833500002142511e-01, -2.2121682619527907e+09, -3.6865354465788153e-01, -1.5354925927110512e+09,  2.9800000000000000e+02,  1.8256095584731646e-01, -6.3180923461913520e-06,  1.8256095584731519e-01,  9.0673565864564615e-06
 8.9284279972870008e+03,  2.0172808213787785e-01, -3.1000166668820750e-01, -2.2258239082620964e+09, -3.1000166668820750e-01, -2.2258239082620964e+09, -3.7106609688390518e-01, -1.5412687860274377e+09,  2.9800000000000000e+02,  1.8376058933801431e-01, -7.3090195655823838e-06,  1.8376058933801304e-01, -7.6219439506529135e-06
 8.9764246639570010e+03,  2.0317410876739878e-01, -3.1166833335498995e-01, -2.2395263139953628e+09, -3.1166833335498995e-01, -2.2395263139953628e+09, -3.7348448359701353e-01, -1.5470317049633410e+09,  2.9800000000000000e+02,  1.8496315533779237e-01, -8.0019235610963540e-06,  1.8496315533779098e-01, -1.1958181858062744e-05
 9.0244213306270012e+03,  2.0462542500010528e-01, -3.1333500002177239e-01, -2.2532758144875202e+09, -3.1333500002177239e-01, -2.2532758144875202e+09, -3.7590873308573897e-01, -1.5527813448983870e+09,  2.9800000000000000e+02,  1.8616866799622966e-01,  2.3022294044495713e-06,  1.8616866799622839e-01,  5.2750110626221787e-06
 9.0724179972970014e+03,  2.0608206296467410e-01, -3.1500166668855478e-01, -2.2670727483475657e+09, -3.1500166668855478e-01, -2.2670727483475657e+09, -3.7833887384484954e-01, -1.5585177012214053e+09,  2.9800000000000000e+02,  1.8737714156601362e-01,  4.1618943214416585e-05,  1.8737714156601232e-01,  3.3684074878692627e-05
 9.1204146639669998e+03,  2.0754405506381174e-01, -3.1666833335533723e-01, -2.2809174574985213e+09, -3.1666833335533723e-01, -2.2809174574985213e+09, -3.8077493457735834e-01, -1.5642407693304577e+09,  2.9800000000000000e+02,  1.8858859040394257e-01,  6.8388879299163791e-05,  1.8858859040394155e-01,  7.2956085205078233e-05
 9.1684113306370000e+03,  2.0901143397726774e-01, -3.1833500002211956e-01, -2.2948102872180157e+09, -3.1833500002211956e-01, -2.2948102872180157e+09, -3.8321694419655794e-01, -1.5699505446328826e+09,  2.9800000000000000e+02,  1.8980302897194457e-01,  1.6257166862487739e-05,  1.8980302897194368e-01,  2.7880072593688911e-05
 9.2164079973070002e+03,  2.1048423266488786e-01, -3.2000166668890201e-01, -2.3087515861791019e+09, -3.2000166668890201e-01, -2.3087515861791019e+09, -3.8566493182807970e-01, -1.5756470225451064e+09,  2.9800000000000000e+02,  1.9102047183810614e-01, -4.1171908378601101e-05,  1.9102047183810511e-01, -3.3475458621978570e-05
 9.2644046639770004e+03,  2.1196248436970952e-01, -3.2166833335568445e-01, -2.3227417064921169e+09, -3.2166833335568445e-01, -2.3227417064921169e+09, -3.8811892681197691e-01, -1.5813301984927421e+09,  2.9800000000000000e+02,  1.9224093367771486e-01,  1.3865530490875461e-05,  1.9224093367771403e-01,  2.6531517505645508e-05
 9.3124013306470006e+03,  2.1344622262109836e-01, -3.2333500002246685e-01, -2.3367810037475986e+09, -3.2333500002246685e-01, -2.3367810037475986e+09, -3.9057895870483661e-01, -1.5870000679109902e+09,  2.9800000000000000e+02,  1.9346442927431362e-01, -7.3611736297608777e-06,  1.9346442927431279e-01, -2.4214386940002712e-06
 9.3603979973170008e+03,  2.1493548123792666e-01, -3.2500166668924929e-01, -2.3508698370583291e+09, -3.2500166668924929e-01, -2.3508698370583291e+09, -3.9304505728191391e-01, -1.5926566262440233e+09,  2.9800000000000000e+02,  1.9469097352076936e-01, -7.4878334999086370e-06,  1.9469097352076850e-01, -1.0810792446136393e-05
 9.4083946639870010e+03,  2.1643029433179761e-01, -3.2666833335603168e-01, -2.3650085691036143e+09, -3.2666833335603168e-01, -2.3650085691036143e+09, -3.9551725253929509e-01, -1.5982998689454491e+09,  2.9800000000000000e+02,  1.9592058142035326e-01, -4.0024518966674913e-05,  1.9592058142035240e-01, -3.9018690586090115e-05
 9.4563913306570012e+03,  2.1793069631031040e-01, -3.2833500002281413e-01, -2.3791975661731844e+09, -3.2833500002281413e-01, -2.3791975661731844e+09, -3.9799557469608693e-01, -1.6039297914780798e+09,  2.9800000000000000e+02,  1.9715326808783668e-01, -4.5709311962127631e-05,  1.9715326808783562e-01, -4.4874846935272434e-05
 9.5043879973270014e+03,  2.1943672188037161e-01, -3.3000166668959657e-01, -2.3934371982123642e+09, -3.3000166668959657e-01, -2.3934371982123642e+09, -4.0048005419663230e-01, -1.6095463893141189e+09,  2.9800000000000000e+02,  1.9838904875059798e-01, -5.4366886615753228e-05,  1.9838904875059682e-01, -5.9194862842559923e-05
 9.5523846639970016e+03,  2.2094840605155269e-01, -3.3166833335637896e-01, -2.4077278388673854e+09, -3.3166833335637896e-01, -2.4077278388673854e+09, -4.0297072171275483e-01, -1.6151496579349737e+09,  2.9800000000000000e+02,  1.9962793874974558e-01,  1.8566846847534180e-05,  1.9962793874974430e-01,  1.8775463104248101e-05
 9.6003813306669999e+03,  2.2246578413949125e-01, -3.3333500002316141e-01, -2.4220698655322399e+09, -3.3333500002316141e-01, -2.4220698655322399e+09, -4.0546760814603156e-01, -1.6207395928316698e+09,  2.9800000000000000e+02,  2.0086995354125245e-01, -5.4389238357545030e-06,  2.0086995354125131e-01, -4.5448541641235894e-06
 9.6483779973370001e+03,  2.2398889176934209e-01, -3.3500166668994374e-01, -2.4364636593948345e+09, -3.3500166668994374e-01, -2.4364636593948345e+09, -4.0797074463009109e-01, -1.6263161895042987e+09,  2.9800000000000000e+02,  2.0211510869710828e-01, -3.2901763916015354e-05,  2.0211510869710722e-01, -2.4482607841491970e-05
 9.6963746640070003e+03,  2.2551776487927430e-01, -3.3666833335672619e-01, -2.4509096054851646e+09, -3.3666833335672619e-01, -2.4509096054851646e+09, -4.1048016253294484e-01, -1.6318794434623723e+09,  2.9800000000000000e+02,  2.0336341990648346e-01, -2.2947788238525391e-06,  2.0336341990648238e-01, -1.3381242752075141e-05
 9.7443713306770005e+03,  2.2705243972401537e-01, -3.3833500002350864e-01, -2.4654080927238264e+09, -3.3833500002350864e-01, -2.4654080927238264e+09, -4.1299589345934562e-01, -1.6374293502249098e+09,  2.9800000000000000e+02,  2.0461490297690685e-01, -1.9431114196777452e-05,  2.0461490297690568e-01, -3.4064054489135580e-05
 9.7923679973470007e+03,  2.2859295287844689e-01, -3.4000166669029103e-01, -2.4799595139706993e+09, -3.4000166669029103e-01, -2.4799595139706993e+09, -4.1551796925317402e-01, -1.6429659053201399e+09,  2.9800000000000000e+02,  2.0586957383546142e-01,  8.8810920715333115e-06,  2.0586957383546045e-01,  7.2568655014038086e-06
 9.8403646640170009e+03,  2.3013934124125035e-01, -3.4166833335707347e-01, -2.4945642660754371e+09, -3.4166833335707347e-01, -2.4945642660754371e+09, -4.1804642199985981e-01, -1.6484891042859256e+09,  2.9800000000000000e+02,  2.0712744852999349e-01, -3.5986304283142090e-05,  2.0712744852999249e-01, -3.2439827919006402e-05
 9.8883613306870011e+03,  2.3169164203860174e-01, -3.4333500002385592e-01, -2.5092227499272971e+09, -3.4333500002385592e-01, -2.5092227499272971e+09, -4.2058128402882844e-01, -1.6539989426692369e+09,  2.9800000000000000e+02,  2.0838854323033709e-01,  1.9863247871399251e-05,  2.0838854323033607e-01,  2.1725893020629829e-05
 9.9363579973570013e+03,  2.3324989282791878e-01, -3.4500166669063831e-01, -2.5239353705074425e+09, -3.4500166669063831e-01, -2.5239353705074425e+09, -4.2312258791598234e-01, -1.6594954160267541e+09,  2.9800000000000000e+02,  2.0965287422955314e-01,  7.5668096542358480e-05,  2.0965287422955192e-01,  6.2331557273864448e-05
 9.9843546640270015e+03,  2.3481413150166169e-01, -3.4666833335742070e-01, -2.5387025369406996e+09, -3.4666833335742070e-01, -2.5387025369406996e+09, -4.2567036648621437e-01, -1.6649785199245791e+09,  2.9800000000000000e+02,  2.1092045794518643e-01,  2.1442770957946804e-05,  2.1092045794518535e-01,  2.9966235160827637e-05
 1.0032351330697000e+04,  2.3638439629118635e-01, -3.4833500002420309e-01, -2.5535246625483189e+09, -3.4833500002420309e-01, -2.5535246625483189e+09, -4.2822465281594868e-01, -1.6704482499380989e+09,  2.9800000000000000e+02,  2.1219131092053789e-01, -1.9326806068420519e-05,  2.1219131092053661e-01, -2.2172927856445204e-05
 1.0080347997367000e+04,  2.3796072577065169e-01, -3.5000166669098548e-01, -2.5684021649020834e+09, -3.5000166669098548e-01, -2.5684021649020834e+09, -4.3078548023571922e-01, -1.6759046016521840e+09,  2.9800000000000000e+02,  2.1346544982595203e-01,  1.3262033462524414e-06,  2.1346544982595081e-01,  2.4437904357911783e-06
 1.0128344664037000e+04,  2.3954315886098268e-01, -3.5166833335776793e-01, -2.5833354658791609e+09, -3.5166833335776793e-01, -2.5833354658791609e+09, -4.3335288233278013e-01, -1.6813475706613352e+09,  2.9800000000000000e+02,  2.1474289146012199e-01,  1.3291835784912164e-05,  2.1474289146012074e-01,  1.6480684280395508e-05
 1.0176341330707000e+04,  2.4113173483388917e-01, -3.5333500002455032e-01, -2.5983249917171731e+09, -3.5333500002455032e-01, -2.5983249917171731e+09, -4.3592689295374620e-01, -1.6867771525694244e+09,  2.9800000000000000e+02,  2.1602365275141075e-01,  5.8248639106750488e-05,  2.1602365275140967e-01,  7.3224306106567708e-05
 1.0224337997377001e+04,  2.4272649331594265e-01, -3.5500166669133276e-01, -2.6133711730709076e+09, -3.5500166669133276e-01, -2.6133711730709076e+09, -4.3850754620727328e-01, -1.6921933429899347e+09,  2.9800000000000000e+02,  2.1730775075919095e-01,  8.9079141616821560e-05,  2.1730775075918976e-01,  1.0226666927337630e-04
 1.0272334664047001e+04,  2.4432747429270907e-01, -3.5666833335811515e-01, -2.6284744450695667e+09, -3.5666833335811515e-01, -2.6284744450695667e+09, -4.4109487646676759e-01, -1.6975961375459890e+09,  2.9800000000000000e+02,  2.1859520267519847e-01, -7.6636672019958550e-05,  2.1859520267519697e-01, -7.2315335273742947e-05
 1.0320331330717001e+04,  2.4593471811294415e-01, -3.5833500002489760e-01, -2.6436352473737082e+09, -3.5833500002489760e-01, -2.6436352473737082e+09, -4.4368891837313446e-01, -1.7029855318695951e+09,  2.9800000000000000e+02,  2.1988602582490985e-01,  2.8535723686218424e-05,  2.1988602582490827e-01,  2.1368265151977268e-05
 1.0368327997387001e+04,  2.4754826549284370e-01, -3.6000166669168004e-01, -2.6588540242365985e+09, -3.6000166669168004e-01, -2.6588540242365985e+09, -4.4628970683756064e-01, -1.7083615216031685e+09,  2.9800000000000000e+02,  2.2118023766892919e-01,  8.8363885879517144e-06,  2.2118023766892764e-01, -6.9439411163331162e-06
 1.0416324664057001e+04,  2.4916815752036045e-01, -3.6166833335846243e-01, -2.6741312245620642e+09, -3.6166833335846243e-01, -2.6741312245620642e+09, -4.4889727704433346e-01, -1.7137241023981791e+09,  2.9800000000000000e+02,  2.2247785580440113e-01, -4.1306018829345540e-05,  2.2247785580439972e-01, -3.3766031265259060e-05
 1.0464321330727002e+04,  2.5079443565957954e-01, -3.6333500002524488e-01, -2.6894673019662476e+09, -3.6333500002524488e-01, -2.6894673019662476e+09, -4.5151166445369662e-01, -1.7190732699157243e+09,  2.9800000000000000e+02,  2.2377889796643760e-01, -4.0069222450256456e-05,  2.2377889796643624e-01, -3.3468008041381944e-05
 1.0512317997397000e+04,  2.5242714175515646e-01, -3.6500166669202727e-01, -2.7048627148395576e+09, -3.6500166669202727e-01, -2.7048627148395576e+09, -4.5413290480474411e-01, -1.7244090198266013e+09,  2.9800000000000000e+02,  2.2508338202956377e-01, -6.1810016632080078e-05,  2.2508338202956235e-01, -6.1288475990295519e-05
 1.0560314664067000e+04,  2.5406631803682339e-01, -3.6666833335880966e-01, -2.7203179264090142e+09, -3.6666833335880966e-01, -2.7203179264090142e+09, -4.5676103411835084e-01, -1.7297313478110063e+09,  2.9800000000000000e+02,  2.2639132600918507e-01,  1.9684433937072971e-05,  2.2639132600918391e-01,  2.5749206542968642e-05
 1.0608311330737000e+04,  2.5571200712395520e-01, -3.6833500002559211e-01, -2.7358334048028851e+09, -3.6833500002559211e-01, -2.7358334048028851e+09, -4.5939608870014370e-01, -1.7350402495590692e+09,  2.9800000000000000e+02,  2.2770274806307100e-01,  1.7687678337097276e-05,  2.2770274806306992e-01,  2.9072165489196723e-05
 1.0656307997407001e+04,  2.5736425203020757e-01, -3.7000166669237450e-01, -2.7514096231146874e+09, -3.7000166669237450e-01, -2.7514096231146874e+09, -4.6203810514350996e-01, -1.7403357207703290e+09,  2.9800000000000000e+02,  2.2901766649286101e-01, -4.5806169509887533e-05,  2.2901766649285971e-01, -3.1575560569763075e-05
 1.0704304664077001e+04,  2.5902309616821850e-01, -3.7166833335915694e-01, -2.7670470594692097e+09, -3.7166833335915694e-01, -2.7670470594692097e+09, -4.6468712033264620e-01, -1.7456177571538413e+09,  2.9800000000000000e+02,  2.3033609974558822e-01, -3.4794211387634006e-05,  2.3033609974558686e-01, -1.8015503883361979e-05
 1.0752301330747001e+04,  2.6068858335437900e-01, -3.7333500002593933e-01, -2.7827461970899134e+09, -3.7333500002593933e-01, -2.7827461970899134e+09, -4.6734317144564935e-01, -1.7508863544285011e+09,  2.9800000000000000e+02,  2.3165806641522416e-01,  8.8512897491452910e-06,  2.3165806641522274e-01, -2.7567148208617622e-06
 1.0800297997417001e+04,  2.6236075781367690e-01, -3.7500166669272178e-01, -2.7985075243666315e+09, -3.7500166669272178e-01, -2.7985075243666315e+09, -4.7000629595764626e-01, -1.7561415083228648e+09,  2.9800000000000000e+02,  2.3298358524424384e-01, -1.7508864402770590e-05,  2.3298358524424265e-01,  5.8114528655989596e-07
 1.0848294664087001e+04,  2.6403966418460895e-01, -3.7666833335950423e-01, -2.8143315349244399e+09, -3.7666833335950423e-01, -2.8143315349244399e+09, -4.7267653164396606e-01, -1.7613832145750287e+09,  2.9800000000000000e+02,  2.3431267512521398e-01,  9.9539756774903699e-06,  2.3431267512521264e-01,  1.4141201972961101e-05
 1.0896291330757002e+04,  2.6572534752416471e-01, -3.7833500002628662e-01, -2.8302187276942515e+09, -3.7833500002628662e-01, -2.8302187276942515e+09, -4.7535391658335630e-01, -1.7666114689328947e+09,  2.9800000000000000e+02,  2.3564535510239756e-01,  2.0489096641540636e-05,  2.3564535510239615e-01,  7.9125165939329970e-06
 1.0944287997427000e+04,  2.6741785331288698e-01, -3.8000166669306906e-01, -2.8461696069839125e+09, -3.8000166669306906e-01, -2.8461696069839125e+09, -4.7803848916124070e-01, -1.7718262671540380e+09,  2.9800000000000000e+02,  2.3698164437338501e-01, -2.5779008865356228e-05,  2.3698164437338379e-01, -2.8774142265320014e-05
 1.0992284664097000e+04,  2.6911722746000555e-01, -3.8166833335985140e-01, -2.8621846825504980e+09, -3.8166833335985140e-01, -2.8621846825504980e+09, -4.8073028807302021e-01, -1.7770276050056009e+09,  2.9800000000000000e+02,  2.3832156229074547e-01, -1.4305114746091039e-06,  2.3832156229074422e-01,  8.3744525909423828e-06
 1.1040281330767000e+04,  2.7082351630864576e-01, -3.8333500002663379e-01, -2.8782644696745572e+09, -3.8333500002663379e-01, -2.8782644696745572e+09, -4.8342935232742146e-01, -1.7822154782646770e+09,  2.9800000000000000e+02,  2.3966512836369810e-01, -9.3132257461544870e-06,  2.3966512836369677e-01, -1.1414289474487711e-05
 1.1088277997437001e+04,  2.7253676664111792e-01, -3.8500166669341623e-01, -2.8944094892342792e+09, -3.8500166669341623e-01, -2.8944094892342792e+09, -4.8613572124988680e-01, -1.7873898827178948e+09,  2.9800000000000000e+02,  2.4101236225980954e-01,  9.7602605819705672e-06,  2.4101236225980829e-01,  2.5510787963866808e-05
 1.1136274664107001e+04,  2.7425702568428240e-01, -3.8666833336019862e-01, -2.9106202677822351e+09, -3.8666833336019862e-01, -2.9106202677822351e+09, -4.8884943448601426e-01, -1.7925508141618443e+09,  2.9800000000000000e+02,  2.4236328380671252e-01, -4.6014785766601454e-05,  2.4236328380671127e-01, -4.7355890274048123e-05
 1.1184271330777001e+04,  2.7598434111499803e-01, -3.8833500002698107e-01, -2.9268973376217833e+09, -3.8833500002698107e-01, -2.9268973376217833e+09, -4.9157053200503970e-01, -1.7976982684025228e+09,  2.9800000000000000e+02,  2.4371791299384843e-01,  9.7453594207763130e-06,  2.4371791299384735e-01,  2.2605061531066759e-05
 1.1232267997447001e+04,  2.7771876106564936e-01, -3.9000166669376346e-01, -2.9432412368869781e+09, -3.9000166669376346e-01, -2.9432412368869781e+09, -4.9429905410337099e-01, -1.8028322412561700e+09,  2.9800000000000000e+02,  2.4507626997423240e-01, -4.4927000999450765e-05,  2.4507626997423118e-01, -4.8056244850158773e-05
 1.1280264664117001e+04,  2.7946033412976035e-01, -3.9166833336054591e-01, -2.9596525096208754e+09, -3.9166833336054591e-01, -2.9596525096208754e+09, -4.9703504140816857e-01, -1.8079527285483062e+09,  2.9800000000000000e+02,  2.4643837506624522e-01,  1.2785196304321452e-05,  2.4643837506624408e-01,  1.7404556274413846e-05
 1.1328261330787001e+04,  2.8120910936768961e-01, -3.9333500002732835e-01, -2.9761317058582525e+09, -3.9333500002732835e-01, -2.9761317058582525e+09, -4.9977853488097362e-01, -1.8130597261146898e+09,  2.9800000000000000e+02,  2.4780424875544618e-01,  6.9439411163328723e-06,  2.4780424875544524e-01,  7.0482492446898872e-06
 1.1376257997457000e+04,  2.8296513631241471e-01, -3.9500166669411074e-01, -2.9926793817070618e+09, -3.9500166669411074e-01, -2.9926793817070618e+09, -5.0252957582138924e-01, -1.8181532298006575e+09,  2.9800000000000000e+02,  2.4917391169641498e-01, -3.6507844924926758e-05,  2.4917391169641406e-01, -3.3274292945861898e-05
 1.1424254664127000e+04,  2.8472846497540283e-01, -3.9666833336089313e-01, -3.0092960994325595e+09, -3.9666833336089313e-01, -3.0092960994325595e+09, -5.0528820587080947e-01, -1.8232332354612818e+09,  2.9800000000000000e+02,  2.5054738471461552e-01,  3.7997961044312608e-06,  2.5054738471461452e-01,  1.3038516044616455e-05
 1.1472251330797000e+04,  2.8649914585256941e-01, -3.9833500002767552e-01, -3.0259824275431862e+09, -3.9833500002767552e-01, -3.0259824275431862e+09, -5.0805446701620294e-01, -1.8282997389617376e+09,  2.9800000000000000e+02,  2.5192468880828656e-01, -1.1712312698364285e-05,  2.5192468880828561e-01, -1.6823410987854058e-05
 1.1520247997467000e+04,  2.8827722993033156e-01, -4.0000166669445797e-01, -3.0427389408764100e+09, -4.0000166669445797e-01, -3.0427389408764100e+09, -5.1082840159394549e-01, -1.8333527361767783e+09,  2.9800000000000000e+02,  2.5330584515036036e-01,  6.8247318267820639e-06,  2.5330584515035964e-01,  1.8075108528137261e-05
 1.1568244664137001e+04,  2.9006276869175052e-01, -4.0166833336124041e-01, -3.0595662206875916e+09, -4.0166833336124041e-01, -3.0595662206875916e+09, -5.1361005229370893e-01, -1.8383922229911728e+09,  2.9800000000000000e+02,  2.5469087509040539e-01,  4.4479966163635444e-05,  2.5469087509040472e-01,  4.3198466300964193e-05
 1.1616241330807001e+04,  2.9185581412277073e-01, -4.0333500002802281e-01, -3.0764648547393670e+09, -4.0333500002802281e-01, -3.0764648547393670e+09, -5.1639946216240262e-01, -1.8434181952995582e+09,  2.9800000000000000e+02,  2.5607980015659731e-01,  3.4406781196594021e-05,  2.5607980015659687e-01,  3.4406781196594211e-05
 1.1664237997477001e+04,  2.9365641871855275e-01, -4.0500166669480525e-01, -3.0934354373927822e+09, -4.0500166669480525e-01, -3.0934354373927822e+09, -5.1919667460817087e-01, -1.8484306490064387e+09,  2.9800000000000000e+02,  2.5747264205771825e-01, -4.8100948333740153e-05,  2.5747264205771786e-01, -4.3109059333801080e-05
 1.1712234664147001e+04,  2.9546463548990720e-01, -4.0666833336158764e-01, -3.1104785696996279e+09, -4.0666833336158764e-01, -3.1104785696996279e+09, -5.2200173340444511e-01, -1.8534295800259871e+09,  2.9800000000000000e+02,  2.5886942268518315e-01,  1.1920928955107941e-07,  2.5886942268518265e-01, -8.3744525909423557e-06
 1.1760231330817001e+04,  2.9728051796982391e-01, -4.0833500002837009e-01, -3.1275948594976673e+09, -4.0833500002837009e-01, -3.1275948594976673e+09, -5.2481468269405629e-01, -1.8584149842826397e+09,  2.9800000000000000e+02,  2.6027016411509335e-01, -1.3738870620727349e-05,  2.6027016411509324e-01,  1.1920928955105230e-07
 1.1808227997487002e+04,  2.9910412022010724e-01, -4.1000166669515253e-01, -3.1447849215055575e+09, -4.1000166669515253e-01, -3.1447849215055575e+09, -5.2763556699340020e-01, -1.8633868577105508e+09,  2.9800000000000000e+02,  2.6167488861032334e-01, -2.3007392883299399e-05,  2.6167488861032306e-01, -1.7479062080382732e-05
 1.1856224664157000e+04,  3.0093549683811072e-01, -4.1166833336193492e-01, -3.1620493774208212e+09, -4.1166833336193492e-01, -3.1620493774208212e+09, -5.3046443119666664e-01, -1.8683451962538929e+09,  2.9800000000000000e+02,  2.6308361862263158e-01, -1.0016560554504145e-04,  2.6308361862263130e-01, -1.0463595390319621e-04
 1.1904221330827000e+04,  3.0277470296357950e-01, -4.1333500002871731e-01, -3.1793888560182457e+09, -4.1333500002871731e-01, -3.1793888560182457e+09, -5.3330132058012569e-01, -1.8732899958664312e+09,  2.9800000000000000e+02,  2.6449637679480692e-01,  4.4465065002449429e-05,  2.6449637679480664e-01,  3.6373734474188959e-05
 1.1952217997497000e+04,  3.0462179428559855e-01, -4.1500166669549970e-01, -3.1968039932524123e+09, -4.1500166669549970e-01, -3.1968039932524123e+09, -5.3614628080647542e-01, -1.8782212525125351e+09,  2.9800000000000000e+02,  2.6591318596283886e-01,  4.7147274017358975e-05,  2.6591318596283836e-01,  4.5865774154685529e-05
 1.2000214664167001e+04,  3.0647682704964951e-01, -4.1666833336228215e-01, -3.2142954323584867e+09, -4.1666833336228215e-01, -3.2142954323584867e+09, -5.3899935792925258e-01, -1.8831389621661389e+09,  2.9800000000000000e+02,  2.6733406915812558e-01, -4.6133995056068264e-05,  2.6733406915812513e-01, -4.2185187339702416e-05
 1.2048211330837001e+04,  3.0833985806478098e-01, -4.1833500002906460e-01, -3.2318638239569569e+09, -4.1833500002906460e-01, -3.2318638239569569e+09, -5.4186059839730505e-01, -1.8880431208109934e+09,  2.9800000000000000e+02,  2.6875904960971031e-01, -2.5168061256094869e-05,  2.6875904960970975e-01, -3.5464763641049969e-05
 1.2096207997507001e+04,  3.1021094471089034e-01, -4.2000166669584699e-01, -3.2495098261605158e+09, -4.2000166669584699e-01, -3.2495098261605158e+09, -5.4473004905933031e-01, -1.8929337244411249e+09,  2.9800000000000000e+02,  2.7018815074654823e-01,  1.4901162469736773e-08,  2.7018815074654778e-01,  2.0414590848207665e-06
 1.2144204664177001e+04,  3.1209014494611959e-01, -4.2166833336262938e-01, -3.2672341046813803e+09, -4.2166833336262938e-01, -3.2672341046813803e+09, -5.4760775716847643e-01, -1.8978107690604632e+09,  2.9800000000000000e+02,  2.7162139619980918e-01,  6.4238905912292980e-05,  2.7162139619980852e-01,  5.5909156804902866e-05
 1.2192201330847001e+04,  3.1397751731437196e-01, -4.2333500002941182e-01, -3.2850373329414921e+09, -4.2333500002941182e-01, -3.2850373329414921e+09, -5.5049377038701242e-01, -1.9026742506830678e+09,  2.9800000000000000e+02,  2.7305880980521113e-01,  3.9979815509761166e-05,  2.7305880980521063e-01,  3.6820769336606482e-05
 1.2240197997517002e+04,  3.1587312095294540e-01, -4.2500166669619421e-01, -3.3029201921838112e+09, -4.2500166669619421e-01, -3.3029201921838112e+09, -5.5338813679106458e-01, -1.9075241653328784e+09,  2.9800000000000000e+02,  2.7450041560538974e-01, -2.5033950669195969e-05,  2.7450041560538929e-01, -2.6196241242425373e-05
 1.2288194664187000e+04,  3.1777701560029137e-01, -4.2666833336297666e-01, -3.3208833715859051e+09, -4.2666833336297666e-01, -3.3208833715859051e+09, -5.5629090487542121e-01, -1.9123605090436566e+09,  2.9800000000000000e+02,  2.7594623785230077e-01,  1.1217594221836664e-04,  2.7594623785230055e-01,  1.2418627814051938e-04
 1.2336191330857000e+04,  3.1968926160389260e-01, -4.2833500002975899e-01, -3.3389275683762665e+09, -4.2833500002975899e-01, -3.3389275683762665e+09, -5.5920212355840815e-01, -1.9171832778593779e+09,  2.9800000000000000e+02,  2.7739630100965706e-01,  5.5018067803148940e-04,  2.7739630100965706e-01,  5.6359172310677802e-04
 1.2384187997527000e+04,  3.2160991992828392e-01, -4.3000166669654144e-01, -3.3570534879473171e+09, -4.3000166669654144e-01, -3.3570534879473171e+09, -5.6212184218683614e-01, -1.9219924678315017e+09,  2.9800000000000000e+02,  2.7885062975541081e-01,  3.9529502668900207e-03,  2.7885062975541097e-01,  3.9632767716064055e-03
 1.2432184664197001e+04,  3.2353905216311851e-01, -4.3166833336332389e-01, -3.3752618440019302e+09, -4.3166833336332389e-01, -3.3752618440019302e+09, -5.6505011054101895e-01, -1.9267880750344901e+09,  2.9800000000000000e+02,  2.8030924898420967e-01,  1.4200806637383644e-05,  2.8030924898420972e-01,  1.6584992428381854e-05
 1.2480181330867001e+04,  3.2547672053159105e-01, -4.3333500003010628e-01, -3.3935533586159520e+09, -4.3333500003010628e-01, -3.3935533586159520e+09, -5.6798697883986415e-01, -1.9315700955313864e+09,  2.9800000000000000e+02,  2.8177218381006097e-01, -5.6028365880711212e-06,  2.8177218381006092e-01,  3.2335519999126787e-06
 1.2528177997537001e+04,  3.2742298789867502e-01, -4.3500166669688872e-01, -3.4119287624254699e+09, -4.3500166669688872e-01, -3.4119287624254699e+09, -5.7093249774604482e-01, -1.9363385254104831e+09,  2.9800000000000000e+02,  2.8323945956879049e-01, -2.5138258912283610e-05,  2.8323945956879015e-01, -3.2737851121102845e-05
 1.2576174664207001e+04,  3.2937791777974684e-01, -4.3666833336367111e-01, -3.4303887947200165e+09, -4.3666833336367111e-01, -3.4303887947200165e+09, -5.7388671837124039e-01, -1.9410933607661681e+09,  2.9800000000000000e+02,  2.8471110182072917e-01,  2.6270747207168864e-05,  2.8471110182072884e-01,  1.2636184714869843e-05
 1.2624171330877001e+04,  3.3134157434924560e-01, -4.3833500003045356e-01, -3.4489342035784893e+09, -4.3833500003045356e-01, -3.4489342035784893e+09, -5.7684969228145810e-01, -1.9458345977032285e+09,  2.9800000000000000e+02,  2.8618713635336007e-01, -5.2988529182282969e-05,  2.8618713635335996e-01, -4.8190355277851258e-05
 1.2672167997547002e+04,  3.3331402244949593e-01, -4.4000166669723600e-01, -3.4675657459988227e+09, -4.4000166669723600e-01, -3.4675657459988227e+09, -5.7982147150243546e-01, -1.9505622323362136e+09,  2.9800000000000000e+02,  2.8766758918402074e-01, -7.0959329581495500e-05,  2.8766758918402074e-01, -6.1243772483177546e-05
 1.2720164664217002e+04,  3.3529532759966957e-01, -4.4166833336401840e-01, -3.4862841880320501e+09, -4.4166833336401840e-01, -3.4862841880320501e+09, -5.8280210852512071e-01, -1.9552762607899737e+09,  2.9800000000000000e+02,  2.8915248656264136e-01, -1.6316771482958569e-05,  2.8915248656264142e-01, -1.1205673193536044e-05
 1.2768161330887000e+04,  3.3728555600489818e-01, -4.4333500003080084e-01, -3.5050903049177208e+09, -4.4333500003080084e-01, -3.5050903049177208e+09, -5.8579165631123498e-01, -1.9599766791996033e+09,  2.9800000000000000e+02,  2.9064185497452755e-01,  2.8088688876079504e-05,  2.9064185497452755e-01,  3.2678246523640031e-05
 1.2816157997557000e+04,  3.3928477456553702e-01, -4.4500166669758318e-01, -3.5239848812217684e+09, -4.4500166669758318e-01, -3.5239848812217684e+09, -5.8879016829892028e-01, -1.9646634837103865e+09,  2.9800000000000000e+02,  2.9213572114318254e-01, -4.7653913468366309e-05,  2.9213572114318270e-01, -3.1396746606158322e-05
 1.2864154664227000e+04,  3.4129305088657935e-01, -4.4666833336436562e-01, -3.5429687109764647e+09, -4.4666833336436562e-01, -3.5429687109764647e+09, -5.9179769840846963e-01, -1.9693366704775226e+09,  2.9800000000000000e+02,  2.9363411203317497e-01, -6.2599778132775216e-05,  2.9363411203317508e-01, -6.6459178882386600e-05
 1.2912151330897001e+04,  3.4331045328722937e-01, -4.4833500003114807e-01, -3.5620425978239875e+09, -4.4833500003114807e-01, -3.5620425978239875e+09, -5.9481430104814548e-01, -1.9739962356664398e+09,  2.9800000000000000e+02,  2.9513705485304570e-01,  8.1419944852992830e-05,  2.9513705485304598e-01,  5.9187412351283694e-05
 1.2960147997567001e+04,  3.4533705081063371e-01, -4.5000166669793046e-01, -3.5812073551627426e+09, -4.5000166669793046e-01, -3.5812073551627426e+09, -5.9784003112008555e-01, -1.9786421754532077e+09,  2.9800000000000000e+02,  2.9664457705826086e-01,  3.7044287003137151e-05,  2.9664457705826119e-01,  3.7014484680176563e-05
 1.3008144664237001e+04,  3.4737291323377611e-01, -4.5166833336471290e-01, -3.6004638062939334e+09, -4.5166833336471290e-01, -3.6004638062939334e+09, -6.0087494402629915e-01, -1.9832744860235891e+09,  2.9800000000000000e+02,  2.9815670635421160e-01,  2.9519201440308430e-05,  2.9815670635421176e-01,  2.4557114761862911e-05
 1.3056141330907001e+04,  3.4941811107753862e-01, -4.5333500003149529e-01, -3.6198127845729103e+09, -4.5333500003149529e-01, -3.6198127845729103e+09, -6.0391909567475166e-01, -1.9878931635732608e+09,  2.9800000000000000e+02,  2.9967347069925676e-01,  5.3627789657835490e-04,  2.9967347069925693e-01,  5.4135919254360426e-04
 1.3104137997577001e+04,  3.5147271561691995e-01, -4.5500166669827774e-01, -3.6392551335672574e+09, -4.5500166669827774e-01, -3.6392551335672574e+09, -6.0697254248554688e-01, -1.9924982043102295e+09,  2.9800000000000000e+02,  3.0119489830780538e-01, -3.4749507865407541e-05,  3.0119489830780566e-01, -2.7567148170251231e-05
 1.3152134664247002e+04,  3.5353679889146977e-01, -4.5666833336506013e-01, -3.6587917071998339e+09, -4.5666833336506013e-01, -3.6587917071998339e+09, -6.1003534139719939e-01, -1.9970896044473219e+09,  2.9800000000000000e+02,  3.0272101765347886e-01,  2.1536052235911901e-03,  3.0272101765347903e-01,  2.1528601655385615e-03
 1.3200131330917000e+04,  3.5561043371579232e-01, -4.5833500003184258e-01, -3.6784233699376583e+09, -4.5833500003184258e-01, -3.6784233699376583e+09, -6.1310754987300597e-01, -2.0016673602184997e+09,  2.9800000000000000e+02,  3.0425185747224032e-01,  1.7911195776081800e-05,  3.0425185747224026e-01,  1.2099742910617309e-05
 1.3248127997587000e+04,  3.5769369369041665e-01, -4.6000166669862491e-01, -3.6981509969102879e+09, -4.6000166669862491e-01, -3.6981509969102879e+09, -6.1618922590751524e-01, -2.0062314678544698e+09,  2.9800000000000000e+02,  3.0578744676571362e-01,  4.1574239751811237e-05,  3.0578744676571357e-01,  4.4822692892068563e-05
 1.3296124664257000e+04,  3.5978665321263159e-01, -4.6166833336540730e-01, -3.7179754741153760e+09, -4.6166833336540730e-01, -3.7179754741153760e+09, -6.1928042803309491e-01, -2.0107819236049051e+09,  2.9800000000000000e+02,  3.0732781480439048e-01,  1.0535120985124256e-05,  3.0732781480439042e-01,  1.0684132596881996e-05
 1.3344121330927001e+04,  3.6188938748766325e-01, -4.6333500003218975e-01, -3.7378976985673542e+09, -4.6333500003218975e-01, -3.7378976985673542e+09, -6.2238121532660373e-01, -2.0153187237274692e+09,  2.9800000000000000e+02,  3.0887299113100380e-01, -7.7635049603730897e-06,  3.0887299113100375e-01, -1.9818544175598902e-06
 1.3392117997597001e+04,  3.6400197253998290e-01, -4.6500166669897219e-01, -3.7579185784735212e+09, -4.6500166669897219e-01, -3.7579185784735212e+09, -6.2549164741616514e-01, -2.0198418644902627e+09,  2.9800000000000000e+02,  3.1042300556390717e-01, -6.3493847822848951e-05,  3.1042300556390712e-01, -5.6326389289564793e-05
 1.3440114664267001e+04,  3.6612448522481755e-01, -4.6666833336575458e-01, -3.7780390334083481e+09, -4.6666833336575458e-01, -3.7780390334083481e+09, -6.2861178448804733e-01, -2.0243513421715105e+09,  2.9800000000000000e+02,  3.1197788820051475e-01, -2.7403235399373993e-05,  3.1197788820051447e-01, -2.5421380962944919e-05
 1.3488111330937001e+04,  3.6825700323985949e-01, -4.6833500003253703e-01, -3.7982599944923019e+09, -4.6833500003253703e-01, -3.7982599944923019e+09, -6.3174168729365188e-01, -2.0288471530599213e+09,  2.9800000000000000e+02,  3.1353766942079558e-01,  6.5147876836511485e-05,  3.1353766942079536e-01,  7.0974230857269948e-05
 1.3536107997607001e+04,  3.7039960513717790e-01, -4.7000166669931948e-01, -3.8185824045734911e+09, -4.7000166669931948e-01, -3.8185824045734911e+09, -6.3488141715661139e-01, -2.0333292934547410e+09,  2.9800000000000000e+02,  3.1510237989082113e-01, -1.2323259863610513e-05,  3.1510237989082063e-01, -1.5363096764906860e-05
 1.3584104664277002e+04,  3.7255237033533989e-01, -4.7166833336610187e-01, -3.8390072184109097e+09, -4.7166833336610187e-01, -3.8390072184109097e+09, -6.3803103597999655e-01, -2.0377977596648302e+09,  2.9800000000000000e+02,  3.1667205056637238e-01,  2.2725761251376694e-04,  3.1667205056637227e-01,  2.2982061215860890e-04
 1.3632101330947002e+04,  3.7471537913173364e-01, -4.7333500003288431e-01, -3.8595354028667021e+09, -4.7333500003288431e-01, -3.8595354028667021e+09, -6.4119060625364210e-01, -2.0422525480107007e+09,  2.9800000000000000e+02,  3.1824671269659699e-01, -5.4091214754751343e-06,  3.1824671269659682e-01, -4.1276216331976451e-06
 1.3680097997617000e+04,  3.7688871271513102e-01, -4.7500166669966670e-01, -3.8801679370900016e+09, -4.7500166669966670e-01, -3.8801679370900016e+09, -6.4436019106158449e-01, -2.0466936548200922e+09,  2.9800000000000000e+02,  3.1982639782774103e-01,  1.6406476502189085e-03,  3.1982639782774069e-01,  1.6271620993754260e-03
 1.3728094664287000e+04,  3.7907245317840127e-01, -4.7666833336644909e-01, -3.9009058127325993e+09, -4.7666833336644909e-01, -3.9009058127325993e+09, -6.4753985408961889e-01, -2.0511210764386563e+09,  2.9800000000000000e+02,  3.2141113780689290e-01, -5.9887766823756516e-05,  3.2141113780689273e-01, -6.2957406027963896e-05
 1.3776091330957001e+04,  3.8126668353158438e-01, -4.7833500003323154e-01, -3.9217500341151991e+09, -4.7833500003323154e-01, -3.9217500341151991e+09, -6.5072965963297869e-01, -2.0555348092121570e+09,  2.9800000000000000e+02,  3.2300096478588342e-01,  9.1344118260606370e-06,  3.2300096478588325e-01,  1.1429190651488820e-05
 1.3824087997627001e+04,  3.8347148771502765e-01, -4.8000166670001393e-01, -3.9427016184629288e+09, -4.8000166670001393e-01, -3.9427016184629288e+09, -6.5392967260413515e-01, -2.0599348495036912e+09,  2.9800000000000000e+02,  3.2459591122512638e-01, -6.5416097509343588e-06,  3.2459591122512621e-01,  3.5464763807673493e-06
 1.3872084664297001e+04,  3.8568695061287395e-01, -4.8166833336679638e-01, -3.9637615960958638e+09, -4.8166833336679638e-01, -3.9637615960958638e+09, -6.5713995854072449e-01, -2.0643211936847491e+09,  2.9800000000000000e+02,  3.2619600989761316e-01,  7.6010823258822224e-05,  3.2619600989761288e-01,  7.3254108449047079e-05
 1.3920081330967001e+04,  3.8791315806674409e-01, -4.8333500003357877e-01, -3.9849310106449766e+09, -4.8333500003357877e-01, -3.9849310106449766e+09, -6.6036058361360039e-01, -2.0686938381376996e+09,  2.9800000000000000e+02,  3.2780129389292995e-01, -4.3839216238871886e-05,  3.2780129389292961e-01, -4.7296285597135841e-05
 1.3968077997637001e+04,  3.9015019688967012e-01, -4.8500166670036121e-01, -4.0062109192652445e+09, -4.8500166670036121e-01, -4.0062109192652445e+09, -6.6359161463501848e-01, -2.0730527792546115e+09,  2.9800000000000000e+02,  3.2941179662135472e-01,  8.5726380280361222e-05,  3.2941179662135439e-01,  9.0420246196151700e-05
 1.4016074664307002e+04,  3.9239815488027396e-01, -4.8666833336714366e-01, -4.0276023928582783e+09, -4.8666833336714366e-01, -4.0276023928582783e+09, -6.6683311906695375e-01, -2.0773980134388511e+09,  2.9800000000000000e+02,  3.3102755181801047e-01,  7.2523951225387639e-05,  3.3102755181801002e-01,  7.2881579589739384e-05
 1.4064071330977002e+04,  3.9465712083720272e-01, -4.8833500003392605e-01, -4.0491065162932634e+09, -4.8833500003392605e-01, -4.0491065162932634e+09, -6.7008516502954985e-01, -2.0817295371035709e+09,  2.9800000000000000e+02,  3.3264859354709403e-01,  1.7257034712627687e-04,  3.3264859354709347e-01,  1.7118454018321717e-04
 1.4112067997647000e+04,  3.9692718457383747e-01, -4.9000166670070849e-01, -4.0707243886318331e+09, -4.9000166670070849e-01, -4.0707243886318331e+09, -6.7334782130971060e-01, -2.0860473466699491e+09,  2.9800000000000000e+02,  3.3427495620617959e-01,  3.0993670439462065e-03,  3.3427495620617909e-01,  3.1046271317752006e-03
 1.4160064664317000e+04,  3.9920843693317942e-01, -4.9166833336749083e-01, -4.0924571233879123e+09, -4.9166833336749083e-01, -4.0924571233879123e+09, -6.7662115736982975e-01, -2.0903514385812874e+09,  2.9800000000000000e+02,  3.3590667453053369e-01, -1.0895728983827905e-04,  3.3590667453053313e-01, -1.0684131922534222e-04
 1.4208061330987000e+04,  4.0150096980322769e-01, -4.9333500003427322e-01, -4.1143058487072840e+09, -4.9333500003427322e-01, -4.1143058487072840e+09, -6.7990524335666402e-01, -2.0946418092729807e+09,  2.9800000000000000e+02,  3.3754378359765574e-01,  2.4586916115581072e-05,  3.3754378359765519e-01,  3.1292439053546162e-05
 1.4256057997657001e+04,  4.0380487613233629e-01, -4.9500166670105566e-01, -4.1362717076672249e+09, -4.9500166670105566e-01, -4.1362717076672249e+09, -6.8320015011035362e-01, -2.0989184552024803e+09,  2.9800000000000000e+02,  3.3918631883168504e-01,  1.3945102693145792e-03,  3.3918631883168404e-01,  1.3959556865282968e-03
 1.4304054664327001e+04,  4.0612024994505086e-01, -4.9666833336783806e-01, -4.1583558585049095e+09, -4.9666833336783806e-01, -4.1583558585049095e+09, -6.8650594917358965e-01, -2.1031813728396430e+09,  2.9800000000000000e+02,  3.4083431600801734e-01, -1.5825031274667445e-05,  3.4083431600801595e-01, -1.8849969310343398e-05
 1.4352051330997001e+04,  4.0844718635823191e-01, -4.9833500003462050e-01, -4.1805594748494587e+09, -4.9833500003462050e-01, -4.1805594748494587e+09, -6.8982271280093677e-01, -2.1074305586566200e+09,  2.9800000000000000e+02,  3.4248781125800126e-01,  3.1918287348265328e-05,  3.4248781125799976e-01,  2.2694468228088216e-05
 1.4400000000000000e+04,  4.1078343709737325e-01, -5.0000000000000000e-01, -4.2028613605984335e+09, -5.0000000000000000e-01, -4.2028613605984335e+09, -6.9314718055994518e-01, -2.1116617804637136e+09,  2.9800000000000000e+02,  3.4414517923243038e-01,  1.4752894740492281e-03,  3.4414517923242904e-01,  1.4846771962229166e-03
