                   time,             contraction,            displacement,                    load,      engineering_strain,      engineering_stress,             true_strain,             true_stress,             temperature,           log_strain_xx,        cauchy_stress_xx,           log_strain_yy,        cauchy_stress_yy
 1.0000000000000000e+00,  0.0000000000000000e+00,  0.0000000000000000e+00,  0.0000000000000000e+00,  0.0000000000000000e+00,  0.0000000000000000e+00,  0.0000000000000000e+00,  0.0000000000000000e+00,  2.9800000000000000e+02,  0.0000000000000000e+00,  0.0000000000000000e+00,  0.0000000000000000e+00,  0.0000000000000000e+00
 1.0000100000000001e+00,  4.5000047598471234e-07, -1.6666666666775853e-06, -3.3333391114080907e+05, -1.6666666666775853e-06, -3.3333391114080907e+05, -1.6666680554431169e-06, -3.3333361114017427e+05,  2.9800000000000000e+02,  4.5000037479456890e-07, -5.2506735300994478e-05,  4.5000037483045383e-07, -5.2506737119983882e-05
 1.0100100000000001e+00,  5.4515819717020162e-04, -1.6683333333333457e-03, -2.5232151431765282e+08, -1.6683333333333457e-03, -2.5232151431765282e+08, -1.6697265511722791e-03, -2.5204662883847433e+08,  2.9800000000000000e+02,  5.4500965242475230e-04,  1.0517258197069155e-03,  5.4500965242379115e-04,  9.4952806830406341e-04
 1.0200100000000001e+00,  1.3720228163136578e-03, -3.3350000000000137e-03, -2.6089208201217014e+08, -3.3350000000000137e-03, -2.6089208201217014e+08, -3.3405735077155089e-03, -2.6017765288951093e+08,  2.9800000000000000e+02,  1.3710824530442976e-03,  4.2512863874435234e-03,  1.3710824530450772e-03,  4.3276343494653875e-03
 1.0300100000000001e+00,  2.2009862017275199e-03, -5.0016666666666820e-03, -2.6947872744447029e+08, -5.0016666666666820e-03, -2.6947872744447029e+08, -5.0142168668230198e-03, -2.6829639440134367e+08,  2.9800000000000000e+02,  2.1985675798495774e-03,  6.3983723521231982e-05,  2.1985675798506833e-03,  1.0496377944946350e-04
 1.0400100000000001e+00,  3.0320571426177751e-03, -6.6683333333333499e-03, -2.7808152682108527e+08, -6.6683333333333499e-03, -2.7808152682108527e+08, -6.6906660045532940e-03, -2.7640284729255146e+08,  2.9800000000000000e+02,  3.0274697278896111e-03, -2.6121735572814989e-05,  3.0274697278906155e-03, -1.5027821063995297e-05
 1.0500100000000001e+00,  3.8652444797777769e-03, -8.3350000000000177e-03, -2.8670055688161194e+08, -8.3350000000000177e-03, -2.8670055688161194e+08, -8.3699303441978432e-03, -2.8449700550359190e+08,  2.9800000000000000e+02,  3.8577936157692897e-03,  3.5371631383895163e-06,  3.8577936157702924e-03,  5.5655837059021741e-06
 1.0600100000000001e+00,  4.7005571060477315e-03, -1.0001666666666686e-02, -2.9533589488399696e+08, -1.0001666666666686e-02, -2.9533589488399696e+08, -1.0052019356602096e-02, -2.9257886297774768e+08,  2.9800000000000000e+02,  4.6895439858758887e-03, -5.8628618717193610e-05,  4.6895439858770059e-03, -6.3398852944374057e-05
 1.0700100000000001e+00,  5.5380039666966373e-03, -1.1668333333333353e-02, -3.0398761861225039e+08, -1.1668333333333353e-02, -3.0398761861225039e+08, -1.1736942560483798e-02, -3.0064841366444492e+08,  2.9800000000000000e+02,  5.5227256045268973e-03, -3.9530918002128405e-05,  5.5227256045281290e-03, -3.9784237742424208e-05
 1.0800100000000001e+00,  6.3775940598189487e-03, -1.3335000000000022e-02, -3.1265580638154399e+08, -1.3335000000000022e-02, -3.1265580638154399e+08, -1.3424709522756598e-02, -3.0870565151990378e+08,  2.9800000000000000e+02,  6.3573432621296831e-03,  6.1150640249252116e-06,  6.3573432621307985e-03,  8.4396451711654968e-06
 1.0900100000000001e+00,  7.2193364367372972e-03, -1.5001666666666691e-02, -3.2134053704242522e+08, -1.5001666666666691e-02, -3.2134053704242522e+08, -1.5115329858856994e-02, -3.1675057050686824e+08,  2.9800000000000000e+02,  7.1934017733449465e-03,  6.7828223109245314e-05,  7.1934017733460021e-03,  6.9726258516311591e-05
 1.1000100000000002e+00,  8.0632402024070123e-03, -1.6668333333333358e-02, -3.3004188998558944e+08, -1.6668333333333358e-02, -3.3004188998558944e+08, -1.6808813233072019e-02, -3.2478316459484082e+08,  2.9800000000000000e+02,  8.0309059772509100e-03, -3.8767233490943733e-05,  8.0309059772520845e-03, -3.8545578718185560e-05
 1.1100100000000002e+00,  8.9093145158287718e-03, -1.8335000000000025e-02, -3.3875994514573789e+08, -1.8335000000000025e-02, -3.3875994514573789e+08, -1.8505169358870116e-02, -3.3280342775937247e+08,  2.9800000000000000e+02,  8.8698607375109675e-03,  5.7812780141830451e-05,  8.8698607375120916e-03,  5.7481229305267307e-05
 1.1200100000000002e+00,  9.7575685904580864e-03, -2.0001666666666695e-02, -3.4749478300751591e+08, -2.0001666666666695e-02, -3.4749478300751591e+08, -2.0204407999237645e-02, -3.4081135398335505e+08,  2.9800000000000000e+02,  9.7102709425370207e-03,  7.8864395618439805e-06,  9.7102709425380962e-03,  5.5208802223204211e-06
 1.1300100000000000e+00,  1.0608011694625184e-02, -2.1668333333333362e-02, -3.5624648460897595e+08, -2.1668333333333362e-02, -3.5624648460897595e+08, -2.1906538967013930e-02, -3.4880693725582916e+08,  2.9800000000000000e+02,  1.0552141505661541e-02, -5.3346157073974474e-05,  1.0552141505662534e-02, -5.9112906455993788e-05
 1.1400100000000000e+00,  1.1460653151955479e-02, -2.3334999999999995e-02, -3.6501513154677057e+08, -2.3334999999999995e-02, -3.6501513154677057e+08, -2.3611572125231378e-02, -3.5679017157244849e+08,  2.9800000000000000e+02,  1.1395477365306380e-02,  3.4248456358909770e-05,  1.1395477365307475e-02,  4.6165660023689148e-05
 1.1500100000000000e+00,  1.2315502341793495e-02, -2.5001666666666662e-02, -3.7380080598147881e+08, -2.5001666666666662e-02, -3.7380080598147881e+08, -2.5319517387460265e-02, -3.6476105093602467e+08,  2.9800000000000000e+02,  1.2240283485152685e-02, -2.1865591406822069e-05,  1.2240283485153620e-02, -3.3501535654068156e-05
 1.1600100000000000e+00,  1.3172568699634488e-02, -2.6668333333333329e-02, -3.8260359064135587e+08, -2.6668333333333329e-02, -3.8260359064135587e+08, -2.7030384718152334e-02, -3.7271956935547882e+08,  2.9800000000000000e+02,  1.3086564854316373e-02, -1.0067597031593316e-05,  1.3086564854317397e-02, -1.2077391147613519e-05
 1.1700100000000000e+00,  1.4031861717554822e-02, -2.8334999999999999e-02, -3.9142356882816321e+08, -2.8334999999999999e-02, -3.9142356882816321e+08, -2.8744184132991183e-02, -3.8066572084678298e+08,  2.9800000000000000e+02,  1.3934326487520739e-02, -1.4070421457290636e-05,  1.3934326487521794e-02, -1.9054859876632657e-05
 1.1800100000000000e+00,  1.4893390944651206e-02, -3.0001666666666666e-02, -4.0026082442159319e+08, -3.0001666666666666e-02, -4.0026082442159319e+08, -3.0460925699243004e-02, -3.8859949943247545e+08,  2.9800000000000000e+02,  1.4783573425273059e-02, -7.0966780185699734e-06,  1.4783573425274242e-02, -7.3798000812530721e-06
 1.1900100000000000e+00,  1.5757165987481704e-02, -3.1668333333333333e-02, -4.0911544188445604e+08, -3.1668333333333333e-02, -4.0911544188445604e+08, -3.2180619536111940e-02, -3.9652089914187270e+08,  2.9800000000000000e+02,  1.5634310734041978e-02, -1.6950070857994933e-07,  1.5634310734043075e-02,  5.6568533182142742e-06
 1.2000100000000000e+00,  1.6623196510510412e-02, -3.3335000000000004e-02, -4.1798750626768434e+08, -3.3335000000000004e-02, -4.1798750626768434e+08, -3.3903275815098673e-02, -4.0442991401105165e+08,  2.9800000000000000e+02,  1.6486543506435782e-02, -1.8622726202011000e-05,  1.6486543506436836e-02, -2.0574778318405233e-05
 1.2100100000000000e+00,  1.7491492236558031e-02, -3.5001666666666674e-02, -4.2687710321530259e+08, -3.5001666666666674e-02, -4.2687710321530259e+08, -3.5628904760359459e-02, -4.1232653808274919e+08,  2.9800000000000000e+02,  1.7340276861383709e-02, -1.2289732694625949e-05,  1.7340276861384854e-02, -1.0352581739425524e-05
 1.2200100000000000e+00,  1.8362062947255793e-02, -3.6668333333333337e-02, -4.3578431896970028e+08, -3.6668333333333337e-02, -4.3578431896970028e+08, -3.7357516649071582e-02, -4.2021076540650380e+08,  2.9800000000000000e+02,  1.8195515944317557e-02,  6.0517340898513794e-05,  1.8195515944318841e-02,  6.1631202697753825e-05
 1.2300100000000000e+00,  1.9234918483503734e-02, -3.8335000000000008e-02, -4.4470924037704694e+08, -3.8335000000000008e-02, -4.4470924037704694e+08, -3.9089121811801769e-02, -4.2808259003888041e+08,  2.9800000000000000e+02,  1.9052265927355067e-02, -1.1622905731201063e-05,  1.9052265927356541e-02,  1.5534460544585640e-06
 1.2400100000000001e+00,  2.0110068745934372e-02, -4.0001666666666671e-02, -4.5365195489188588e+08, -4.0001666666666671e-02, -4.5365195489188588e+08, -4.0823730632873374e-02, -4.3594200604285365e+08,  2.9800000000000000e+02,  1.9910532009486399e-02, -2.0615756511688178e-05,  1.9910532009487725e-02, -2.2768974304199300e-05
 1.2500100000000001e+00,  2.0987523695378062e-02, -4.1668333333333342e-02, -4.6261255058301389e+08, -4.1668333333333342e-02, -4.6261255058301389e+08, -4.2561353550742934e-02, -4.4378900748837757e+08,  2.9800000000000000e+02,  2.0770319416758849e-02,  3.6720186471939155e-05,  2.0770319416760292e-02,  4.0147453546523994e-05
 1.2600100000000001e+00,  2.1867293353336564e-02, -4.3335000000000012e-02, -4.7159111613886321e+08, -4.3335000000000012e-02, -4.7159111613886321e+08, -4.4302001058376124e-02, -4.5162358845241976e+08,  2.9800000000000000e+02,  2.1631633402466835e-02,  2.2944062948227010e-05,  2.1631633402468247e-02,  2.8166919946670464e-05
 1.2700100000000001e+00,  2.2749387802458457e-02, -4.5001666666666676e-02, -4.8058774087250173e+08, -4.5001666666666676e-02, -4.8058774087250173e+08, -4.6045683703627924e-02, -4.5944574301857698e+08,  2.9800000000000000e+02,  2.2494479247341742e-02,  9.2610716819763455e-06,  2.2494479247342974e-02,  5.7220458984374458e-06
 1.2800100000000001e+00,  2.3633817187018711e-02, -4.6668333333333346e-02, -4.8960251472734070e+08, -4.6668333333333346e-02, -4.8960251472734070e+08, -4.7792412089624800e-02, -4.6725546527731645e+08,  2.9800000000000000e+02,  2.3358862259742673e-02,  4.3984502553939955e-05,  2.3358862259743790e-02,  4.2866915464401137e-05
 1.2900100000000001e+00,  2.4520591713406842e-02, -4.8335000000000017e-02, -4.9863552828283209e+08, -4.8335000000000017e-02, -4.9863552828283209e+08, -4.9542196875154765e-02, -4.7505274932614815e+08,  2.9800000000000000e+02,  2.4224787775851277e-02,  3.7834048271179199e-05,  2.4224787775852359e-02,  3.1758099794387804e-05
 1.3000100000000001e+00,  2.5409721650614465e-02, -5.0001666666666687e-02, -5.0768687275982136e+08, -5.0001666666666687e-02, -5.0768687275982136e+08, -5.1295048775054537e-02, -4.8283758926941538e+08,  2.9800000000000000e+02,  2.5092261159865941e-02, -5.6952238082885580e-05,  2.5092261159867114e-02, -5.9869140386581556e-05
 1.3100100000000001e+00,  2.6301217330731798e-02, -5.1668333333333351e-02, -5.1675664002603412e+08, -5.1668333333333351e-02, -5.1675664002603412e+08, -5.3050978560604173e-02, -4.9060997921815568e+08,  2.9800000000000000e+02,  2.5961287804199498e-02, -6.4246356487274170e-05,  2.5961287804200900e-02, -5.7023018598556573e-05
 1.3200100000000001e+00,  2.7195089149446659e-02, -5.3335000000000021e-02, -5.2584492260217893e+08, -5.3335000000000021e-02, -5.2584492260217893e+08, -5.4809997059925127e-02, -4.9836991329049337e+08,  2.9800000000000000e+02,  2.6831873129676997e-02,  4.3146312236785821e-05,  2.6831873129678406e-02,  4.7460198402404819e-05
 1.3300100000000001e+00,  2.8091347566547867e-02, -5.5001666666666692e-02, -5.3495181366791338e+08, -5.5001666666666692e-02, -5.3495181366791338e+08, -5.6572115158380010e-02, -5.0611738561184114e+08,  2.9800000000000000e+02,  2.7704022585734657e-02, -7.9087913036346192e-05,  2.7704022585736010e-02, -7.1257352828979601e-05
 1.3400100000000001e+00,  2.8990003106436998e-02, -5.6668333333333355e-02, -5.4407740706650960e+08, -5.6668333333333355e-02, -5.4407740706650960e+08, -5.8337343798976475e-02, -5.1385239031381065e+08,  2.9800000000000000e+02,  2.8577741650625755e-02,  2.0340085029602051e-06,  2.8577741650627039e-02,  8.3111226558684693e-06
 1.3500100000000002e+00,  2.9891066358640032e-02, -5.8335000000000026e-02, -5.5322179731225419e+08, -5.8335000000000026e-02, -5.5322179731225419e+08, -6.0105693982776126e-02, -5.2157492153565967e+08,  2.9800000000000000e+02,  2.9453035831620539e-02,  3.3363699913024868e-05,  2.9453035831621704e-02,  3.8530677556991611e-05
 1.3600100000000002e+00,  3.0794547978328764e-02, -6.0001666666666689e-02, -5.6238507959539962e+08, -6.0001666666666689e-02, -5.6238507959539962e+08, -6.1877176769304647e-02, -5.2928497342335558e+08,  2.9800000000000000e+02,  3.0329910665214097e-02,  3.9227306842803975e-05,  3.0329910665215145e-02,  4.9941241741180386e-05
 1.3700100000000002e+00,  3.1700458686844429e-02, -6.1668333333333360e-02, -5.7156734978855264e+08, -6.1668333333333360e-02, -5.7156734978855264e+08, -6.3651803276967775e-02, -5.3698254012994301e+08,  2.9800000000000000e+02,  3.1208371717332980e-02, -1.7091631889343316e-05,  3.1208371717334038e-02, -1.7557293176651001e-05
 1.3800100000000002e+00,  3.2608809272226535e-02, -6.3335000000000030e-02, -5.8076870445247316e+08, -6.3335000000000030e-02, -5.8076870445247316e+08, -6.5429584683469127e-02, -5.4466761581529248e+08,  2.9800000000000000e+02,  3.2088424583545390e-02, -8.7507069110870090e-06,  3.2088424583546570e-02, -1.2554228305817057e-06
 1.3900100000000000e+00,  3.3519610589749095e-02, -6.5001666666666694e-02, -5.8998924084264922e+08, -6.5001666666666694e-02, -5.8998924084264922e+08, -6.7210532226233091e-02, -5.5234019464651871e+08,  2.9800000000000000e+02,  3.2970074889271388e-02,  1.0978430509567369e-05,  3.2970074889272609e-02,  1.3228505849838189e-05
 1.4000100000000000e+00,  3.4432873562459304e-02, -6.6668333333333316e-02, -5.9922905691530848e+08, -6.6668333333333316e-02, -5.9922905691530848e+08, -6.8994657202831697e-02, -5.6000027079780567e+08,  2.9800000000000000e+02,  3.3853328289996411e-02, -6.3829123973846490e-05,  3.3853328289997715e-02, -4.5474618673324531e-05
 1.4100100000000000e+00,  3.5348609181723986e-02, -6.8334999999999993e-02, -6.0848825133332789e+08, -6.8334999999999993e-02, -6.0848825133332789e+08, -7.0781970971412964e-02, -5.6764783845007682e+08,  2.9800000000000000e+02,  3.4738190471487067e-02,  2.8111040592193597e-05,  3.4738190471488441e-02,  3.0137598514556831e-05
 1.4200100000000000e+00,  3.6266828507778154e-02, -7.0001666666666670e-02, -6.1776692347346282e+08, -7.0001666666666670e-02, -6.1776692347346282e+08, -7.2572484951136829e-02, -5.7528289179183614e+08,  2.9800000000000000e+02,  3.5624667150005548e-02, -8.5234642028808458e-06,  3.5624667150007158e-02, -5.0589442253111709e-06
 1.4300100000000000e+00,  3.7187542670283708e-02, -7.1668333333333334e-02, -6.2706517343174636e+08, -7.1668333333333334e-02, -6.2706517343174636e+08, -7.4366210622610507e-02, -5.8290542501823235e+08,  2.9800000000000000e+02,  3.6512764072531900e-02,  1.7210841178894219e-05,  3.6512764072533628e-02,  1.9118189811706326e-05
 1.4400100000000000e+00,  3.8110762868890070e-02, -7.3334999999999997e-02, -6.3638310203069949e+08, -7.3334999999999997e-02, -6.3638310203069949e+08, -7.6163159528332469e-02, -5.9051543233175385e+08,  2.9800000000000000e+02,  3.7402487016982344e-02,  4.8298388719558851e-05,  3.7402487016984121e-02,  5.9239566326141181e-05
 1.4500100000000000e+00,  3.9036500373799826e-02, -7.5001666666666661e-02, -6.4572081082573330e+08, -7.5001666666666661e-02, -6.4572081082573330e+08, -7.7963343273136976e-02, -5.9811290794209969e+08,  2.9800000000000000e+02,  3.8293841792432372e-02, -4.2472034692764228e-05,  3.8293841792434211e-02, -3.2998621463775675e-05
 1.4600100000000000e+00,  3.9964766526344057e-02, -7.6668333333333338e-02, -6.5507840211123705e+08, -7.6668333333333338e-02, -6.5507840211123705e+08, -7.9766773524643259e-02, -6.0569784606569672e+08,  2.9800000000000000e+02,  3.9186834239343549e-02,  1.7188489437103366e-05,  3.9186834239345443e-02,  2.0720064640045112e-05
 1.4700100000000000e+00,  4.0895572739558156e-02, -7.8335000000000002e-02, -6.6445597892829609e+08, -7.8335000000000002e-02, -6.6445597892829609e+08, -8.1573462013710712e-02, -6.1327024092666316e+08,  2.9800000000000000e+02,  4.0081470229786954e-02, -4.4878572225570489e-05,  4.0081470229788925e-02, -3.9435923099517958e-05
 1.4800100000000000e+00,  4.1828930498768582e-02, -8.0001666666666665e-02, -6.7385364507034397e+08, -8.0001666666666665e-02, -6.7385364507034397e+08, -8.3383420534894823e-02, -6.2083008675578499e+08,  2.9800000000000000e+02,  4.0977755667675669e-02,  1.5143305063247708e-05,  4.0977755667677682e-02,  2.1092593669891222e-05
 1.4900100000000001e+00,  4.2764851362181375e-02, -8.1668333333333329e-02, -6.8327150509097576e+08, -8.1668333333333329e-02, -6.8327150509097576e+08, -8.5196660946911515e-02, -6.2837737779143000e+08,  2.9800000000000000e+02,  4.1875696488993031e-02,  3.6433339118957506e-05,  4.1875696488994939e-02,  4.4595450162887627e-05
 1.5000100000000001e+00,  4.3703346961477915e-02, -8.3335000000000006e-02, -6.9270966431032181e+08, -8.3335000000000006e-02, -6.9270966431032181e+08, -8.7013195173100966e-02, -6.3591210827905917e+08,  2.9800000000000000e+02,  4.2775298662026867e-02, -2.7004629373550198e-05,  4.2775298662028602e-02, -3.0245631933212416e-05
 1.5100100000000001e+00,  4.4644429002418322e-02, -8.5001666666666684e-02, -7.0216822882189667e+08, -8.5001666666666684e-02, -7.0216822882189667e+08, -8.8833035201899349e-02, -6.4343427247110832e+08,  2.9800000000000000e+02,  4.3676568187605229e-02, -9.7975134849534787e-07,  4.3676568187606978e-02, -3.3527612686162648e-07
 1.5200100000000001e+00,  4.5588109265448137e-02, -8.6668333333333347e-02, -7.1164730550028706e+08, -8.6668333333333347e-02, -7.1164730550028706e+08, -9.0656193087314124e-02, -6.5094386462757134e+08,  2.9800000000000000e+02,  4.4579511099332676e-02, -1.9323080778121948e-05,  4.4579511099334432e-02, -1.2103468179702908e-05
 1.5300100000000001e+00,  4.6534399606312837e-02, -8.8335000000000011e-02, -7.2114700200763988e+08, -8.8335000000000011e-02, -7.2114700200763988e+08, -9.2482680949401069e-02, -6.5844087901540995e+08,  2.9800000000000000e+02,  4.5484133463830324e-02,  6.1735510826110962e-05,  4.5484133463832066e-02,  6.3091516494750787e-05
 1.5400100000000001e+00,  4.7483311956677446e-02, -9.0001666666666674e-02, -7.3066742680165088e+08, -9.0001666666666674e-02, -7.3066742680165088e+08, -9.4312510974750061e-02, -6.6592530990926504e+08,  2.9800000000000000e+02,  4.6390441380976449e-02, -5.0779432058334080e-05,  4.6390441380978434e-02, -4.5794993638992499e-05
 1.5500100000000001e+00,  4.8434858324754707e-02, -9.1668333333333352e-02, -7.4020868914170492e+08, -9.1668333333333352e-02, -7.4020868914170492e+08, -9.6145695416970864e-02, -6.7339715159040666e+08,  2.9800000000000000e+02,  4.7298440984153679e-02,  2.3227185010910102e-05,  4.7298440984155567e-02,  1.1526048183441094e-05
 1.5600100000000001e+00,  4.9389050795936279e-02, -9.3335000000000015e-02, -7.4977089909763956e+08, -9.3335000000000015e-02, -7.4977089909763956e+08, -9.7982246597187433e-02, -6.8085639834800661e+08,  2.9800000000000000e+02,  4.8208138440490586e-02,  4.9695372581483560e-06,  4.8208138440492737e-02,  2.0567327737808092e-05
 1.5700100000000001e+00,  5.0345901533432207e-02, -9.5001666666666679e-02, -7.5935416755625486e+08, -9.5001666666666679e-02, -7.5935416755625486e+08, -9.9822176904532878e-02, -6.8830304447827864e+08,  2.9800000000000000e+02,  4.9119539951113317e-02, -4.5798718929290771e-05,  4.9119539951115440e-02, -4.9624592065811157e-05
 1.5800100000000001e+00,  5.1305422778918058e-02, -9.6668333333333342e-02, -7.6895860622896075e+08, -9.6668333333333342e-02, -7.6895860622896075e+08, -1.0166549879665222e-01, -6.9573708428458118e+08,  2.9800000000000000e+02,  5.0032651751395922e-02,  3.2391399145126438e-05,  5.0032651751398212e-02,  3.2383948564529270e-05
 1.5900100000000001e+00,  5.2267626853185215e-02, -9.8335000000000020e-02, -7.7858432766002333e+08, -9.8335000000000020e-02, -7.7858432766002333e+08, -1.0351222480020869e-01, -7.0315851207799006e+08,  2.9800000000000000e+02,  5.0947480111211745e-02,  6.1418861150741577e-05,  5.0947480111213993e-02,  6.5430998802185086e-05
 1.6000100000000002e+00,  5.3232526156801012e-02, -1.0000166666666668e-01, -7.8823144523377562e+08, -1.0000166666666668e-01, -7.8823144523377562e+08, -1.0536236751139301e-01, -7.1056732217684817e+08,  2.9800000000000000e+02,  5.1864031335189922e-02, -6.2167644500732503e-05,  5.1864031335192101e-02, -5.8613717555999593e-05
 1.6100100000000002e+00,  5.4200133170774364e-02, -1.0166833333333336e-01, -7.9790007318207335e+08, -1.0166833333333336e-01, -7.9790007318207335e+08, -1.0721593959643987e-01, -7.1796350890646648e+08,  2.9800000000000000e+02,  5.2782311762974328e-02, -5.2843242883682332e-05,  5.2782311762976576e-02, -3.4395605325698744e-05
 1.6200100000000002e+00,  5.5170460457228246e-02, -1.0333500000000002e-01, -8.0759032659304595e+08, -1.0333500000000002e-01, -8.0759032659304595e+08, -1.0907295379214871e-01, -7.2534706659991550e+08,  2.9800000000000000e+02,  5.3702327769481591e-02,  2.7287751436233656e-05,  5.3702327769483686e-02,  3.0182301998138346e-05
 1.6300100000000002e+00,  5.6143520660077967e-02, -1.0500166666666669e-01, -8.1730232141873980e+08, -1.0500166666666669e-01, -8.1730232141873980e+08, -1.1093342290640844e-01, -7.3271798959773421e+08,  2.9800000000000000e+02,  5.4624085765163782e-02, -5.0030648708343641e-06,  5.4624085765166003e-02,  1.7471611499786106e-06
 1.6400100000000002e+00,  5.7119326505718826e-02, -1.0666833333333336e-01, -8.2703617448273468e+08, -1.0666833333333336e-01, -8.2703617448273468e+08, -1.1279735981872639e-01, -7.4007627224753606e+08,  2.9800000000000000e+02,  5.5547592196275537e-02,  4.4517219066619981e-05,  5.5547592196277917e-02,  4.8317015171051012e-05
 1.6500100000000000e+00,  5.8097890803719299e-02, -1.0833500000000003e-01, -8.3679200348913741e+08, -1.0833500000000003e-01, -8.3679200348913741e+08, -1.1466477748076531e-01, -7.4742190890477359e+08,  2.9800000000000000e+02,  5.6472853545138993e-02, -6.0528516769409261e-05,  5.6472853545141213e-02, -6.3613057136535645e-05
 1.6600100000000000e+00,  5.9079226447521040e-02, -1.1000166666666666e-01, -8.4656992702978861e+08, -1.1000166666666666e-01, -8.4656992702978861e+08, -1.1653568891688104e-01, -7.5475489393181539e+08,  2.9800000000000000e+02,  5.7399876330415898e-02, -2.8423964977264242e-05,  5.7399876330418119e-02, -3.9491802453994887e-05
 1.6700100000000000e+00,  6.0063346415146240e-02, -1.1166833333333333e-01, -8.5637006459361911e+08, -1.1166833333333333e-01, -8.5637006459361911e+08, -1.1841010722466951e-01, -7.6207522169886875e+08,  2.9800000000000000e+02,  5.8328667107378135e-02,  4.2226165533065823e-05,  5.8328667107380439e-02,  3.8526952266693061e-05
 1.6800100000000000e+00,  6.1050263769913904e-02, -1.1333499999999999e-01, -8.6619253657474828e+08, -1.1333499999999999e-01, -8.6619253657474828e+08, -1.2028804557551669e-01, -7.6938288658368492e+08,  2.9800000000000000e+02,  5.9259232468183876e-02, -5.9232115745544163e-06,  5.9259232468186360e-02,  1.5199184417725151e-06
 1.6900100000000000e+00,  6.2039991661160893e-02, -1.1500166666666665e-01, -8.7603746428056753e+08, -1.1500166666666665e-01, -8.7603746428056753e+08, -1.2216951721515222e-01, -7.7667788297117543e+08,  2.9800000000000000e+02,  6.0191579042155857e-02,  1.1473894119262695e-06,  6.0191579042158529e-02,  2.5108456611632894e-06
 1.7000100000000000e+00,  6.3032543324973628e-02, -1.1666833333333333e-01, -8.8590496994099605e+08, -1.1666833333333333e-01, -8.8590496994099605e+08, -1.2405453546421169e-01, -7.8396020525398207e+08,  2.9800000000000000e+02,  6.1125713496060316e-02, -7.7262520790100098e-06,  6.1125713496062967e-02, -1.9557774066924927e-05
 1.7100100000000000e+00,  6.4027932084923467e-02, -1.1833500000000000e-01, -8.9579517671681321e+08, -1.1833500000000000e-01, -8.9579517671681321e+08, -1.2594311371880201e-01, -7.9122984783213973e+08,  2.9800000000000000e+02,  6.2061642534390629e-02,  1.4357268810272244e-05,  6.2061642534393273e-02,  2.4400651454926079e-06
 1.7200100000000000e+00,  6.5026171352813938e-02, -1.2000166666666667e-01, -9.0570820870874143e+08, -1.2000166666666667e-01, -9.0570820870874143e+08, -1.2783526545107246e-01, -7.9848680511331463e+08,  2.9800000000000000e+02,  6.2999372899652545e-02,  1.8697232007980387e-05,  6.2999372899655390e-02,  3.2018870115280036e-05
 1.7300100000000000e+00,  6.6027274629431504e-02, -1.2166833333333334e-01, -9.1564419096632349e+08, -1.2166833333333334e-01, -9.1564419096632349e+08, -1.2973100420979150e-01, -8.0573107151277828e+08,  2.9800000000000000e+02,  6.3938911372652479e-02, -6.1258673667907783e-05,  6.3938911372654963e-02, -6.9364905357360786e-05
 1.7400100000000001e+00,  6.7031255505309056e-02, -1.2333500000000000e-01, -9.2560324949641299e+08, -1.2333500000000000e-01, -9.2560324949641299e+08, -1.3163034362092793e-01, -8.1296264145294082e+08,  2.9800000000000000e+02,  6.4880264772789867e-02,  5.2623450756072944e-05,  6.4880264772792295e-02,  6.5714120864868164e-05
 1.7500100000000001e+00,  6.8038127661492309e-02, -1.2500166666666668e-01, -9.3558551127361012e+08, -1.2500166666666668e-01, -9.3558551127361012e+08, -1.3353329738824149e-01, -8.2018150936451542e+08,  2.9800000000000000e+02,  6.5823439958348190e-02, -3.2112002372741428e-06,  6.5823439958350549e-02, -1.1920928955078220e-05
 1.7600100000000001e+00,  6.9047904870317950e-02, -1.2666833333333333e-01, -9.4559110424790287e+08, -1.2666833333333333e-01, -9.4559110424790287e+08, -1.3543987929387186e-01, -8.2738766968512690e+08,  2.9800000000000000e+02,  6.6768443826794671e-02,  6.5788626670836047e-06,  6.6768443826797183e-02,  7.9795718193055283e-06
 1.7700100000000001e+00,  7.0060600996198860e-02, -1.2833500000000000e-01, -9.5562015735522258e+08, -1.2833500000000000e-01, -9.5562015735522258e+08, -1.3735010319894062e-01, -8.3458111686039257e+08,  2.9800000000000000e+02,  6.7715283315077521e-02, -4.4107437133788249e-06,  6.7715283315080019e-02, -1.2747943401336792e-05
 1.7800100000000001e+00,  7.1076229996416315e-02, -1.3000166666666668e-01, -9.6567280052622461e+08, -1.3000166666666668e-01, -9.6567280052622461e+08, -1.3926398304415480e-01, -8.4176184534334636e+08,  2.9800000000000000e+02,  6.8663965399929347e-02,  4.3205916881561415e-05,  6.8663965399931762e-02,  2.7641654014587321e-05
 1.7900100000000001e+00,  7.2094805921922675e-02, -1.3166833333333333e-01, -9.7574916469628513e+08, -1.3166833333333333e-01, -9.7574916469628513e+08, -1.4118153285041773e-01, -8.4892984959483612e+08,  2.9800000000000000e+02,  6.9614497098171579e-02,  5.3070485591888306e-05,  6.9614497098174133e-02,  5.2973628044128581e-05
 1.8000100000000001e+00,  7.3116342918151306e-02, -1.3333500000000001e-01, -9.8584938181485355e+08, -1.3333500000000001e-01, -9.8584938181485355e+08, -1.4310276671944555e-01, -8.5608512408325982e+08,  2.9800000000000000e+02,  7.0566885467023693e-02,  6.0454010963439996e-05,  7.0566885467026344e-02,  5.7056546211242594e-05
 1.8100100000000001e+00,  7.4140855225834801e-02, -1.3500166666666669e-01, -9.9597358485549617e+08, -1.3500166666666669e-01, -9.9597358485549617e+08, -1.4502769883438765e-01, -8.6322766328480780e+08,  2.9800000000000000e+02,  7.1521137604412699e-02, -6.0185790061950629e-05,  7.1521137604415419e-02, -6.5073370933532701e-05
 1.8200100000000001e+00,  7.5168357181833539e-02, -1.3666833333333334e-01, -1.0061219078251841e+09, -1.3666833333333334e-01, -1.0061219078251841e+09, -1.4695634346045752e-01, -8.7035746168294859e+08,  2.9800000000000000e+02,  7.2477260649289832e-02, -1.7084181308746182e-05,  7.2477260649292538e-02, -2.1032989025115994e-05
 1.8300100000000001e+00,  7.6198863219969701e-02, -1.3833500000000001e-01, -1.0162944857753799e+09, -1.3833500000000001e-01, -1.0162944857753799e+09, -1.4888871494556483e-01, -8.7747451376938152e+08,  2.9800000000000000e+02,  7.3435261781943845e-02, -6.0930848121643094e-05,  7.3435261781946620e-02, -5.9053301811218174e-05
 1.8400100000000001e+00,  7.7232387871875807e-02, -1.4000166666666669e-01, -1.0264914548111123e+09, -1.4000166666666669e-01, -1.0264914548111123e+09, -1.5082482772095765e-01, -8.8457881404313076e+08,  2.9800000000000000e+02,  7.4395148224325622e-02, -4.0873885154723870e-05,  7.4395148224328328e-02, -4.5493245124817166e-05
 1.8500100000000002e+00,  7.8268945767845738e-02, -1.4166833333333337e-01, -1.0367129521018018e+09, -1.4166833333333337e-01, -1.0367129521018018e+09, -1.5276469630186815e-01, -8.9167035701107025e+08,  2.9800000000000000e+02,  7.5356927240367855e-02,  4.3012201786041321e-05,  7.5356927240370672e-02,  4.9673020839691047e-05
 1.8600100000000002e+00,  7.9308551637698885e-02, -1.4333500000000002e-01, -1.0469591158917341e+09, -1.4333500000000002e-01, -1.0469591158917341e+09, -1.5470833528816558e-01, -8.9874913718802857e+08,  2.9800000000000000e+02,  7.6320606136312974e-02,  7.0258975028990276e-06,  7.6320606136315611e-02,  4.8801302909852362e-06
 1.8700100000000002e+00,  8.0351220311653787e-02, -1.4500166666666670e-01, -1.0572300855098600e+09, -1.4500166666666670e-01, -1.0572300855098600e+09, -1.5665575936501558e-01, -9.0581514909621167e+08,  2.9800000000000000e+02,  7.7286192261043427e-02,  1.0050833225250041e-05,  7.7286192261046119e-02,  1.8611550331115838e-05
 1.8800100000000002e+00,  8.1396966721208802e-02, -1.4666833333333334e-01, -1.0675260013811412e+09, -1.4666833333333334e-01, -1.0675260013811412e+09, -1.5860698330354617e-01, -9.1286838726585376e+08,  2.9800000000000000e+02,  7.8253693006413522e-02, -8.1211328506471353e-06,  7.8253693006416034e-02, -1.4990568161010620e-05
 1.8900100000000002e+00,  8.2445805900034252e-02, -1.4833500000000002e-01, -1.0778470050368602e+09, -1.4833500000000002e-01, -1.0778470050368602e+09, -1.6056202196151922e-01, -9.1990884623486590e+08,  2.9800000000000000e+02,  7.9223115807585620e-02, -5.0947070121765177e-05,  7.9223115807588104e-02, -4.0665268898010335e-05
 1.9000100000000000e+00,  8.3497752984873164e-02, -1.5000166666666670e-01, -1.0881932391255331e+09, -1.5000166666666670e-01, -1.0881932391255331e+09, -1.6252089028401093e-01, -9.2693652054889798e+08,  2.9800000000000000e+02,  8.0194468143370570e-02, -2.3618340492249077e-06,  8.0194468143372832e-02, -8.1956386566151945e-08
 1.9100100000000000e+00,  8.4552823216451342e-02, -1.5166833333333332e-01, -1.0985648474242575e+09, -1.5166833333333332e-01, -1.0985648474242575e+09, -1.6448360330409573e-01, -9.3395140476166153e+08,  2.9800000000000000e+02,  8.1167757536568241e-02, -3.2812356948852566e-05,  8.1167757536570295e-02, -4.8659741878509521e-05
 1.9200100000000000e+00,  8.5611031940399179e-02, -1.5333500000000000e-01, -1.1089619748491545e+09, -1.5333500000000000e-01, -1.1089619748491545e+09, -1.6645017614353902e-01, -9.4095349343436623e+08,  2.9800000000000000e+02,  8.2142991554316383e-02, -8.6426734924313484e-07,  8.2142991554318548e-02,  1.1734664440155233e-05
 1.9300100000000000e+00,  8.6672394608181616e-02, -1.5500166666666668e-01, -1.1193847674673200e+09, -1.5500166666666668e-01, -1.1193847674673200e+09, -1.6842062401349622e-01, -9.4794278113633394e+08,  2.9800000000000000e+02,  8.3120177808438070e-02,  4.4435262680053555e-05,  8.3120177808439846e-02,  2.6896595954895230e-05
 1.9400100000000000e+00,  8.7736926778037877e-02, -1.5666833333333333e-01, -1.1298333725078087e+09, -1.5666833333333333e-01, -1.1298333725078087e+09, -1.7039496221521869e-01, -9.5491926244467509e+08,  2.9800000000000000e+02,  8.4099323955794600e-02,  2.7172267436981079e-05,  8.4099323955796321e-02,  1.2151896953582899e-05
 1.9500100000000000e+00,  8.8804644115934195e-02, -1.5833500000000000e-01, -1.1403079383730698e+09, -1.5833500000000000e-01, -1.1403079383730698e+09, -1.7237320614076679e-01, -9.6188293194423079e+08,  2.9800000000000000e+02,  8.5080437698644124e-02,  6.5192580223083320e-05,  8.5080437698645928e-02,  7.3410570621490628e-05
 1.9600100000000000e+00,  8.9875562396524125e-02, -1.6000166666666665e-01, -1.1508086146510549e+09, -1.6000166666666665e-01, -1.1508086146510549e+09, -1.7435537127373024e-01, -9.6883378422797489e+08,  2.9800000000000000e+02,  8.6063526784999289e-02,  5.0961971282958923e-05,  8.6063526785001065e-02,  5.0663948059082011e-05
 1.9700100000000000e+00,  9.0949697504120297e-02, -1.6166833333333333e-01, -1.1613355521265090e+09, -1.6166833333333333e-01, -1.1613355521265090e+09, -1.7634147318995397e-01, -9.7577181389660001e+08,  2.9800000000000000e+02,  8.7048599008992131e-02,  1.7151236534118591e-05,  8.7048599008993879e-02,  1.0788440704345730e-05
 1.9800100000000000e+00,  9.2027065433677196e-02, -1.6333499999999998e-01, -1.1718889027930965e+09, -1.6333499999999998e-01, -1.1718889027930965e+09, -1.7833152755827375e-01, -9.8269701555869806e+08,  2.9800000000000000e+02,  8.8035662211240595e-02,  2.8572976589202617e-05,  8.8035662211242316e-02,  2.4832785129547275e-05
 1.9900100000000001e+00,  9.3107682291784039e-02, -1.6500166666666666e-01, -1.1824688198655877e+09, -1.6500166666666666e-01, -1.1824688198655877e+09, -1.8032555014125753e-01, -9.8960938383086181e+08,  2.9800000000000000e+02,  8.9024724279219564e-02,  8.6456537246703831e-05,  8.9024724279221257e-02,  8.7499618530273492e-05
 2.0000100000000001e+00,  9.4191564297668312e-02, -1.6666833333333334e-01, -1.1930754577922206e+09, -1.6666833333333334e-01, -1.1930754577922206e+09, -1.8232355679595469e-01, -9.9650891333782005e+08,  2.9800000000000000e+02,  9.0015793147634929e-02,  4.7087669372556087e-06,  9.0015793147636525e-02,  1.7359852790833333e-06
 2.0100100000000003e+00,  9.5278727784212966e-02, -1.6833499999999996e-01, -1.2037089722664022e+09, -1.6833499999999996e-01, -1.2037089722664022e+09, -1.8432556347465176e-01, -1.0033955987118875e+09,  2.9800000000000000e+02,  9.1008876798803290e-02, -3.7342309951782125e-05,  9.1008876798804622e-02, -4.5999884605407823e-05
 2.0200100000000001e+00,  9.6369189198980881e-02, -1.7000166666666669e-01, -1.2143695202398143e+09, -1.7000166666666669e-01, -1.2143695202398143e+09, -1.8633158622563822e-01, -1.0102694345934752e+09,  2.9800000000000000e+02,  9.2003983263032732e-02,  2.0660459995269667e-05,  9.2003983263033995e-02,  1.3120472431182916e-05
 2.0300099999999999e+00,  9.7462965105252361e-02, -1.7166833333333331e-01, -1.2250572599352458e+09, -1.7166833333333331e-01, -1.2250572599352458e+09, -1.8834164119397639e-01, -1.0171304156312413e+09,  2.9800000000000000e+02,  9.3001120619008171e-02, -2.1301209926605008e-05,  9.3001120619009531e-02, -1.3031065464019931e-05
 2.0400100000000001e+00,  9.8560072183077427e-02, -1.7333499999999993e-01, -1.2357723508587284e+09, -1.7333499999999993e-01, -1.2357723508587284e+09, -1.9035574462228352e-01, -1.0239785364815249e+09,  2.9800000000000000e+02,  9.4000296994183913e-02, -1.2606382369995104e-05,  9.4000296994185245e-02, -1.1667609214782593e-05
 2.0500099999999999e+00,  9.9660527230332890e-02, -1.7500166666666664e-01, -1.2465149538131289e+09, -1.7500166666666664e-01, -1.2465149538131289e+09, -1.9237391285151700e-01, -1.0308137918088812e+09,  2.9800000000000000e+02,  9.5001520565174247e-02, -3.9741396903991889e-05,  9.5001520565175468e-02, -2.9191374778747403e-05
 2.0600100000000001e+00,  1.0076434716379717e-01, -1.7666833333333326e-01, -1.2572852309108586e+09, -1.7666833333333326e-01, -1.2572852309108586e+09, -1.9439616232177054e-01, -1.0376361762857363e+09,  2.9800000000000000e+02,  9.6004799558152845e-02,  1.0326504707336297e-05,  9.6004799558153817e-02,  9.3206763267518106e-06
 2.0700099999999999e+00,  1.0187154902023474e-01, -1.7833499999999997e-01, -1.2680833455876436e+09, -1.7833499999999997e-01, -1.2680833455876436e+09, -1.9642250957307936e-01, -1.0444456845927963e+09,  2.9800000000000000e+02,  9.7010142249254055e-02, -1.3336539268493646e-05,  9.7010142249254860e-02, -1.1585652828216485e-05
 2.0800100000000001e+00,  1.0298214995749280e-01, -1.8000166666666662e-01, -1.2789094626154499e+09, -1.8000166666666662e-01, -1.2789094626154499e+09, -1.9845297124622893e-01, -1.0512423114186188e+09,  2.9800000000000000e+02,  9.8017556964979199e-02, -2.5145709514617822e-05,  9.8017556964979935e-02, -2.2917985916137780e-05
 2.0900099999999999e+00,  1.0409616725561006e-01, -1.8166833333333332e-01, -1.2897637481165080e+09, -1.8166833333333332e-01, -1.2897637481165080e+09, -2.0048756408357774e-01, -1.0580260514599633e+09,  2.9800000000000000e+02,  9.9027052082606024e-02, -5.9947371482848857e-05,  9.9027052082606620e-02, -8.5741281509399685e-05
 2.1000100000000002e+00,  1.0521361831793843e-01, -1.8333499999999994e-01, -1.3006463695767546e+09, -1.8333499999999994e-01, -1.3006463695767546e+09, -2.0252630492988302e-01, -1.0647968994215169e+09,  2.9800000000000000e+02,  1.0003863603060280e-01, -4.0955841541290188e-05,  1.0003863603060367e-01, -4.2743980884552124e-05
 2.1100099999999999e+00,  1.0633452067227778e-01, -1.8500166666666665e-01, -1.3115574958602316e+09, -1.8500166666666665e-01, -1.3115574958602316e+09, -2.0456921073314044e-01, -1.0715548500162702e+09,  2.9800000000000000e+02,  1.0105231728904747e-01, -7.4356794357298280e-06,  1.0105231728904841e-01, -1.1190772056579695e-05
 2.1200100000000002e+00,  1.0745889197202156e-01, -1.8666833333333330e-01, -1.3224972972228868e+09, -1.8666833333333330e-01, -1.3224972972228868e+09, -2.0661629854542662e-01, -1.0782998979652655e+09,  2.9800000000000000e+02,  1.0206810439004912e-01,  9.0524554252626002e-06,  1.0206810439005001e-01,  1.9676983356475634e-05
 2.1300100000000000e+00,  1.0858674999731799e-01, -1.8833499999999997e-01, -1.3334659453269739e+09, -1.8833499999999997e-01, -1.3334659453269739e+09, -2.0866758552375506e-01, -1.0850320379976830e+09,  2.9800000000000000e+02,  1.0308600591817599e-01,  2.2679567337036153e-05,  1.0308600591817667e-01,  1.3329088687896705e-05
 2.1400100000000002e+00,  1.0971811265624208e-01, -1.9000166666666662e-01, -1.3444636132554927e+09, -1.9000166666666662e-01, -1.3444636132554927e+09, -2.1072308893093808e-01, -1.0917512648508275e+09,  2.9800000000000000e+02,  1.0410603051088646e-01,  2.1003186702728258e-05,  1.0410603051088715e-01,  1.2651085853576484e-05
 2.1500100000000000e+00,  1.1085299798598197e-01, -1.9166833333333330e-01, -1.3554904755269668e+09, -1.9166833333333330e-01, -1.3554904755269668e+09, -2.1278282613645910e-01, -1.0984575732702382e+09,  2.9800000000000000e+02,  1.0512818685896443e-01, -4.1082501411438029e-05,  1.0512818685896506e-01, -4.9009919166564969e-05
 2.1600100000000002e+00,  1.1199142415403877e-01, -1.9333499999999995e-01, -1.3665467081099443e+09, -1.9333499999999995e-01, -1.3665467081099443e+09, -2.1484681461735158e-01, -1.1051509580094242e+09,  2.9800000000000000e+02,  1.0615248370696061e-01, -1.6465783119201721e-05,  1.0615248370696130e-01, -1.4014542102813775e-05
 2.1700100000000000e+00,  1.1313340945944116e-01, -1.9500166666666666e-01, -1.3776324884386320e+09, -1.9500166666666666e-01, -1.3776324884386320e+09, -2.1691507195909179e-01, -1.1118314138303730e+09,  2.9800000000000000e+02,  1.0717892985363667e-01, -1.8179416656494090e-05,  1.0717892985363714e-01, -2.5525689125061005e-05
 2.1800100000000002e+00,  1.1427897233397016e-01, -1.9666833333333328e-01, -1.3887479954275441e+09, -1.9666833333333328e-01, -1.3887479954275441e+09, -2.1898761585649495e-01, -1.1184989355031095e+09,  2.9800000000000000e+02,  1.0820753415241451e-01, -3.0845403671264757e-05,  1.0820753415241506e-01, -2.0518898963928196e-05
 2.1900100000000000e+00,  1.1542813134340232e-01, -1.9833499999999998e-01, -1.3998934094870691e+09, -1.9833499999999998e-01, -1.3998934094870691e+09, -2.2106446411462519e-01, -1.1251535178058403e+09,  2.9800000000000000e+02,  1.0923830551183163e-01,  6.3404440879821886e-05,  1.0923830551183204e-01,  4.8071146011352349e-05
 2.2000100000000002e+00,  1.1658090518876424e-01, -2.0000166666666663e-01, -1.4110689125394351e+09, -2.0000166666666663e-01, -1.4110689125394351e+09, -2.2314563464971318e-01, -1.1317951555252705e+09,  2.9800000000000000e+02,  1.1027125289599803e-01,  3.9055943489074890e-05,  1.1027125289599862e-01,  4.4777989387512112e-05
 2.2100100000000000e+00,  1.1773731270760354e-01, -2.0166833333333334e-01, -1.4222746880339160e+09, -2.0166833333333334e-01, -1.4222746880339160e+09, -2.2523114549008269e-01, -1.1384238434561400e+09,  2.9800000000000000e+02,  1.1130638532506219e-01, -2.8781592845916497e-05,  1.1130638532506264e-01, -3.3579766750335876e-05
 2.2200100000000003e+00,  1.1889737287527169e-01, -2.0333499999999996e-01, -1.4335109209629898e+09, -2.0333499999999996e-01, -1.4335109209629898e+09, -2.2732101477708794e-01, -1.1450395764013846e+09,  2.9800000000000000e+02,  1.1234371187567774e-01, -5.6147575378417765e-05,  1.1234371187567806e-01, -5.6646764278412123e-05
 2.2300100000000000e+00,  1.2006110480622514e-01, -2.0500166666666667e-01, -1.4447777978787439e+09, -2.0500166666666667e-01, -1.4447777978787439e+09, -2.2941526076606150e-01, -1.1516423491723130e+09,  2.9800000000000000e+02,  1.1338324168147806e-01, -2.4288892745971625e-05,  1.1338324168147836e-01, -1.5288591384887831e-05
 2.2400100000000003e+00,  1.2122852775533727e-01, -2.0666833333333329e-01, -1.4560755069092414e+09, -2.0666833333333329e-01, -1.4560755069092414e+09, -2.3151390182726905e-01, -1.1582321565886087e+09,  2.9800000000000000e+02,  1.1442498393355324e-01,  1.5601515769958557e-05,  1.1442498393355337e-01,  9.0748071670531651e-06
 2.2500100000000001e+00,  1.2239966111923024e-01, -2.0833499999999999e-01, -1.4674042377749145e+09, -2.0833499999999999e-01, -1.4674042377749145e+09, -2.3361695644687891e-01, -1.1648089934781685e+09,  2.9800000000000000e+02,  1.1546894788093510e-01,  6.5982341766357259e-05,  1.1546894788093538e-01,  7.3537230491638319e-05
 2.2600100000000003e+00,  1.2357452443761868e-01, -2.1000166666666664e-01, -1.4787641818056300e+09, -2.1000166666666664e-01, -1.4787641818056300e+09, -2.3572444322793645e-01, -1.1713728546773272e+09,  2.9800000000000000e+02,  1.1651514283108490e-01,  7.3418021202087240e-05,  1.1651514283108501e-01,  5.9410929679870605e-05
 2.2700100000000001e+00,  1.2475313739467025e-01, -2.1166833333333335e-01, -1.4901555319574714e+09, -2.1166833333333335e-01, -1.4901555319574714e+09, -2.3783638089135317e-01, -1.1779237350306723e+09,  2.9800000000000000e+02,  1.1756357815038665e-01, -4.0978193283064114e-07,  1.1756357815038677e-01,  4.2840838432310792e-06
 2.2800099999999999e+00,  1.2593551982038281e-01, -2.1333499999999997e-01, -1.5015784828299155e+09, -2.1333499999999997e-01, -1.5015784828299155e+09, -2.3995278827690328e-01, -1.1844616293910153e+09,  2.9800000000000000e+02,  1.1861426326464738e-01,  7.3313713073728707e-06,  1.1861426326464732e-01, -3.4272670745833685e-07
 2.2900100000000001e+00,  1.2712169169197496e-01, -2.1500166666666662e-01, -1.5130332306836629e+09, -2.1500166666666662e-01, -1.5130332306836629e+09, -2.4207368434423276e-01, -1.1909865326196935e+09,  2.9800000000000000e+02,  1.1966720765959936e-01,  3.8504600524902405e-05,  1.1966720765959918e-01,  3.7610530853271511e-05
 2.3000099999999999e+00,  1.2831167313529790e-01, -2.1666833333333332e-01, -1.5245199734581494e+09, -2.1666833333333332e-01, -1.5245199734581494e+09, -2.4419908817388009e-01, -1.1974984395864496e+09,  2.9800000000000000e+02,  1.2072242088141109e-01,  5.4471194744109952e-05,  1.2072242088141076e-01,  4.6841800212860067e-05
 2.3100100000000001e+00,  1.2950548442625662e-01, -2.1833499999999995e-01, -1.5360389107893820e+09, -2.1833499999999995e-01, -1.5360389107893820e+09, -2.4632901896830209e-01, -1.2039973451693883e+09,  2.9800000000000000e+02,  1.2177991253720150e-01,  1.3753771781921155e-05,  1.2177991253720127e-01,  1.5810132026672451e-05
 2.3200099999999999e+00,  1.3070314599225619e-01, -2.2000166666666665e-01, -1.5475902440279856e+09, -2.2000166666666665e-01, -1.5475902440279856e+09, -2.4846349605291915e-01, -1.2104832442549157e+09,  2.9800000000000000e+02,  1.2283969229556153e-01,  8.5383653640744834e-06,  1.2283969229556144e-01,  2.0116567611694641e-05
 2.3300100000000001e+00,  1.3190467841365788e-01, -2.2166833333333327e-01, -1.5591741762578545e+09, -2.2166833333333327e-01, -1.5591741762578545e+09, -2.5060253887716477e-01, -1.2169561317379775e+09,  2.9800000000000000e+02,  1.2390176988707889e-01,  1.3880431652068899e-05,  1.2390176988707870e-01,  1.8626451492309794e-05
 2.3400099999999999e+00,  1.3311010242525556e-01, -2.2333499999999998e-01, -1.5707909123146057e+09, -2.2333499999999998e-01, -1.5707909123146057e+09, -2.5274616701554981e-01, -1.2234160025219471e+09,  2.9800000000000000e+02,  1.2496615510486965e-01, -3.2633543014527587e-06,  1.2496615510486941e-01, -5.1558017730711264e-06
 2.3500100000000002e+00,  1.3431943891777026e-01, -2.2500166666666663e-01, -1.5824406588043735e+09, -2.2500166666666663e-01, -1.5824406588043735e+09, -2.5489440016873688e-01, -1.2298628515185995e+09,  2.9800000000000000e+02,  1.2603285780511675e-01, -2.3305416107177944e-05,  1.2603285780511675e-01, -1.6003847122192261e-05
 2.3600099999999999e+00,  1.3553270893936126e-01, -2.2666833333333333e-01, -1.5941236241229300e+09, -2.2666833333333333e-01, -1.5941236241229300e+09, -2.5704725816462726e-01, -1.2362966736481454e+09,  2.9800000000000000e+02,  1.2710188790761298e-01,  2.0235776901245032e-05,  1.2710188790761309e-01,  3.2752752304077277e-05
 2.3700100000000002e+00,  1.3674993369715488e-01, -2.2833499999999995e-01, -1.6058400184752681e+09, -2.2833499999999995e-01, -1.6058400184752681e+09, -2.5920476095945849e-01, -1.2427174638394372e+09,  2.9800000000000000e+02,  1.2817325539630858e-01,  2.4795532226562439e-05,  1.2817325539630861e-01,  3.1583011150360446e-05
 2.3800100000000000e+00,  1.3797113455879198e-01, -2.3000166666666666e-01, -1.6175900538948491e+09, -2.3000166666666666e-01, -1.6175900538948491e+09, -2.6136692863891464e-01, -1.2491252170297141e+09,  2.9800000000000000e+02,  1.2924697031986765e-01, -1.1749565601348907e-05,  1.2924697031986762e-01, -1.3247132301330675e-05
 2.3900100000000002e+00,  1.3919633305399470e-01, -2.3166833333333328e-01, -1.6293739442634995e+09, -2.3166833333333328e-01, -1.6293739442634995e+09, -2.6353378141924760e-01, -1.2555199281646562e+09,  2.9800000000000000e+02,  1.3032304279222892e-01, -2.0228326320648641e-05,  1.3032304279222870e-01, -3.1910836696624593e-05
 2.4000100000000000e+00,  1.4042555087614975e-01, -2.3333499999999999e-01, -1.6411919053316834e+09, -2.3333499999999999e-01, -1.6411919053316834e+09, -2.6570533964841220e-01, -1.2619015921985285e+09,  2.9800000000000000e+02,  1.3140148299317220e-01, -1.1354684829712097e-05,  1.3140148299317214e-01,  7.8976154327413246e-07
 2.4100100000000002e+00,  1.4165880988391311e-01, -2.3500166666666661e-01, -1.6530441547388802e+09, -2.3500166666666661e-01, -1.6530441547388802e+09, -2.6788162380721176e-01, -1.2682702040942025e+09,  2.9800000000000000e+02,  1.3248230116889195e-01, -2.3402273654937886e-05,  1.3248230116889215e-01, -4.4703483581542359e-06
 2.4200100000000000e+00,  1.4289613210283225e-01, -2.3666833333333331e-01, -1.6649309120339756e+09, -2.3666833333333331e-01, -1.6649309120339756e+09, -2.7006265451045863e-01, -1.2746257588229814e+09,  2.9800000000000000e+02,  1.3356550763257730e-01,  5.5655837059022267e-06,  1.3356550763257763e-01,  4.4181942939757030e-06
 2.4300100000000002e+00,  1.4413753972698862e-01, -2.3833499999999996e-01, -1.6768523986964536e+09, -2.3833499999999996e-01, -1.6768523986964536e+09, -2.7224845250814328e-01, -1.2809682513648386e+09,  2.9800000000000000e+02,  1.3465111276499633e-01,  4.1723251342775957e-07,  1.3465111276499675e-01, -1.9744038581848390e-06
 2.4400100000000000e+00,  1.4538305512065963e-01, -2.4000166666666667e-01, -1.6888088381574092e+09, -2.4000166666666667e-01, -1.6888088381574092e+09, -2.7443903868662101e-01, -1.2872976767082973e+09,  2.9800000000000000e+02,  1.3573912701509008e-01, -4.6327710151672377e-05,  1.3573912701509055e-01, -5.5640935897826952e-05
 2.4500100000000002e+00,  1.4663270082000227e-01, -2.4166833333333329e-01, -1.7008004558208871e+09, -2.4166833333333329e-01, -1.7008004558208871e+09, -2.7663443406980903e-01, -1.2936140298503547e+09,  2.9800000000000000e+02,  1.3682956090057058e-01, -4.2870640754699632e-05,  1.3682956090057105e-01, -5.2288174629211446e-05
 2.4600100000000000e+00,  1.4788649953475339e-01, -2.4333500000000000e-01, -1.7128274790858943e+09, -2.4333500000000000e-01, -1.7128274790858943e+09, -2.7883465982039601e-01, -1.2999173057967021e+09,  2.9800000000000000e+02,  1.3792242500852586e-01,  1.3366341590881483e-05,  1.3792242500852647e-01,  2.7380883693695089e-05
 2.4700100000000003e+00,  1.4914447414995460e-01, -2.4500166666666662e-01, -1.7248901373684146e+09, -2.4500166666666662e-01, -1.7248901373684146e+09, -2.8103973724106746e-01, -1.3062074995617275e+09,  2.9800000000000000e+02,  1.3901772999603201e-01,  8.7067484855652018e-05,  1.3901772999603254e-01,  8.7395310401916287e-05
 2.4800100000000000e+00,  1.5040664772769524e-01, -2.4666833333333332e-01, -1.7369886621237202e+09, -2.4666833333333332e-01, -1.7369886621237202e+09, -2.8324968777574289e-01, -1.3124846061685150e+09,  2.9800000000000000e+02,  1.4011548659077180e-01,  3.0316412448882887e-05,  1.4011548659077211e-01,  1.9632279872894253e-05
 2.4900100000000003e+00,  1.5167304350888011e-01, -2.4833499999999994e-01, -1.7491232868685050e+09, -2.4833499999999994e-01, -1.7491232868685050e+09, -2.8546453301082642e-01, -1.3187486206484931e+09,  2.9800000000000000e+02,  1.4121570559166152e-01,  1.6473233699798652e-05,  1.4121570559166166e-01,  1.0780990123748671e-05
 2.5000100000000001e+00,  1.5294368491501323e-01, -2.5000166666666668e-01, -1.7612942472045302e+09, -2.5000166666666668e-01, -1.7612942472045302e+09, -2.8768429467647227e-01, -1.3249995380419965e+09,  2.9800000000000000e+02,  1.4231839786948169e-01, -1.6830861568450995e-05,  1.4231839786948194e-01, -1.0795891284942695e-05
 2.5100100000000003e+00,  1.5421859555001008e-01, -2.5166833333333327e-01, -1.7735017808413789e+09, -2.5166833333333327e-01, -1.7735017808413789e+09, -2.8990899464786446e-01, -1.3312373533979192e+09,  2.9800000000000000e+02,  1.4342357436751824e-01, -3.5688281059264459e-06,  1.4342357436751865e-01, -8.4042549133302137e-06
 2.5200100000000001e+00,  1.5549779920202669e-01, -2.5333499999999998e-01, -1.7857461276203294e+09, -2.5333499999999998e-01, -1.7857461276203294e+09, -2.9213865494650954e-01, -1.3374620617739818e+09,  2.9800000000000000e+02,  1.4453124610220811e-01, -4.4144690036773722e-05,  1.4453124610220860e-01, -4.6186149120330702e-05
 2.5300100000000003e+00,  1.5678131984531385e-01, -2.5500166666666663e-01, -1.7980275295376966e+09, -2.5500166666666663e-01, -1.7980275295376966e+09, -2.9437329774154514e-01, -1.3436736582363584e+09,  2.9800000000000000e+02,  1.4564142416379422e-01,  3.2141804695129313e-05,  1.4564142416379477e-01,  3.5755336284637560e-05
 2.5400100000000001e+00,  1.5806918164209297e-01, -2.5666833333333333e-01, -1.8103462307698359e+09, -2.5666833333333333e-01, -1.8103462307698359e+09, -2.9661294535106236e-01, -1.3498721378603117e+09,  2.9800000000000000e+02,  1.4675411971698518e-01,  3.0674040317535353e-05,  1.4675411971698568e-01,  2.7611851692199822e-05
 2.5500099999999999e+00,  1.5936140894445686e-01, -2.5833499999999998e-01, -1.8227024776967549e+09, -2.5833499999999998e-01, -1.8227024776967549e+09, -2.9885762024344215e-01, -1.3560574957295382e+09,  2.9800000000000000e+02,  1.4786934400162560e-01,  3.8221478462219259e-05,  1.4786934400162605e-01,  3.1366944313049194e-05
 2.5600100000000001e+00,  1.6065802629629261e-01, -2.6000166666666663e-01, -1.8350965189275374e+09, -2.6000166666666663e-01, -1.8350965189275374e+09, -3.0110734503871023e-01, -1.3622297269366214e+09,  2.9800000000000000e+02,  1.4898710833337148e-01,  3.6284327507020805e-06,  1.4898710833337198e-01,  9.3355774879455160e-06
 2.5700099999999999e+00,  1.6195905843522690e-01, -2.6166833333333328e-01, -1.8475286053252385e+09, -2.6166833333333328e-01, -1.8475286053252385e+09, -3.0336214250990173e-01, -1.3683888265828493e+09,  2.9800000000000000e+02,  1.5010742410437392e-01, -4.3667852878570624e-05,  1.5010742410437436e-01, -5.0716102123260539e-05
 2.5800100000000001e+00,  1.6326453029460047e-01, -2.6333499999999993e-01, -1.8599989900323770e+09, -2.6333499999999993e-01, -1.8599989900323770e+09, -3.0562203558444639e-01, -1.3745347897782023e+09,  2.9800000000000000e+02,  1.5123030278397159e-01, -3.9681792259216322e-05,  1.5123030278397223e-01, -2.5637447834014893e-05
 2.5900099999999999e+00,  1.6457446700546094e-01, -2.6500166666666664e-01, -1.8725079284970493e+09, -2.6500166666666664e-01, -1.8725079284970493e+09, -3.0788704734556727e-01, -1.3806676116415653e+09,  2.9800000000000000e+02,  1.5235575591938927e-01,  2.8215348720550601e-05,  1.5235575591938977e-01,  2.0153820514679104e-05
 2.6000100000000002e+00,  1.6588889389858552e-01, -2.6666833333333329e-01, -1.8850556784991107e+09, -2.6666833333333329e-01, -1.8850556784991107e+09, -3.1015720103369476e-01, -1.3867872873007152e+09,  2.9800000000000000e+02,  1.5348379513644492e-01,  1.5802681446075345e-05,  1.5348379513644536e-01,  9.4622373580931262e-07
 2.6100099999999999e+00,  1.6720783650652610e-01, -2.6833499999999999e-01, -1.8976425001763096e+09, -2.6833499999999999e-01, -1.8976425001763096e+09, -3.1243252004789746e-01, -1.3928938118920116e+09,  2.9800000000000000e+02,  1.5461443214026627e-01,  3.9562582969665697e-05,  1.5461443214026660e-01,  3.3646821975707852e-05
 2.6200100000000002e+00,  1.6853132056568060e-01, -2.7000166666666664e-01, -1.9102686560518482e+09, -2.7000166666666664e-01, -1.9102686560518482e+09, -3.1471302794732947e-01, -1.3989871805608780e+09,  2.9800000000000000e+02,  1.5574767871601267e-01, -1.2941658496856554e-05,  1.5574767871601311e-01, -4.5374035835267604e-06
 2.6300100000000000e+00,  1.6985937201839224e-01, -2.7166833333333329e-01, -1.9229344110610933e+09, -2.7166833333333329e-01, -1.9229344110610933e+09, -3.1699874845269388e-01, -1.4050673884613740e+09,  2.9800000000000000e+02,  1.5688354672960916e-01, -3.2506883144378513e-05,  1.5688354672960936e-01, -4.5083463191986382e-05
 2.6400100000000002e+00,  1.7119201701507306e-01, -2.7333499999999994e-01, -1.9356400325795717e+09, -2.7333499999999994e-01, -1.9356400325795717e+09, -3.1928970544772367e-01, -1.4111344307564447e+09,  2.9800000000000000e+02,  1.5802204812848475e-01,  2.2500753402710639e-06,  1.5802204812848505e-01,  1.2747943401336683e-05
 2.6500100000000000e+00,  1.7252928191635442e-01, -2.7500166666666664e-01, -1.9483857904512823e+09, -2.7500166666666664e-01, -1.9483857904512823e+09, -3.2158592298067951e-01, -1.4171883026181176e+09,  2.9800000000000000e+02,  1.5916319494232156e-01, -2.4229288101196140e-05,  1.5916319494232178e-01, -1.8291175365448052e-05
 2.6600100000000002e+00,  1.7387119329526532e-01, -2.7666833333333324e-01, -1.9611719570164118e+09, -2.7666833333333324e-01, -1.9611719570164118e+09, -3.2388742526586140e-01, -1.4232289992269816e+09,  2.9800000000000000e+02,  1.6030699928381237e-01,  3.9868056774139404e-05,  1.6030699928381276e-01,  4.9300491809844916e-05
 2.6700100000000000e+00,  1.7521777793943960e-01, -2.7833499999999994e-01, -1.9739988071411138e+09, -2.7833499999999994e-01, -1.9739988071411138e+09, -3.2619423668514558e-01, -1.4292565157728815e+09,  2.9800000000000000e+02,  1.6145347334942650e-01,  1.7829239368438748e-05,  1.6145347334942708e-01,  1.8924474716186415e-05
 2.6800100000000002e+00,  1.7656906285334864e-01, -2.8000166666666659e-01, -1.9868666182458405e+09, -2.8000166666666659e-01, -1.9868666182458405e+09, -3.2850638178952990e-01, -1.4352708474542699e+09,  2.9800000000000000e+02,  1.6260262942018497e-01,  1.0520219802856513e-05,  1.6260262942018566e-01,  2.0012259483337402e-05
 2.6900100000000000e+00,  1.7792507526056547e-01, -2.8166833333333335e-01, -1.9997756703356483e+09, -2.8166833333333335e-01, -1.9997756703356483e+09, -3.3082388530070506e-01, -1.4412719894786921e+09,  2.9800000000000000e+02,  1.6375447986244443e-01, -1.7717480659485006e-05,  1.6375447986244515e-01, -1.0974705219268609e-05
 2.7000100000000002e+00,  1.7928584260605404e-01, -2.8333499999999995e-01, -2.0127262460298114e+09, -2.8333499999999995e-01, -2.0127262460298114e+09, -3.3314677211263760e-01, -1.4472599370624809e+09,  2.9800000000000000e+02,  1.6490903712868954e-01,  3.0614435672759956e-05,  1.6490903712869004e-01,  2.3633241653442332e-05
 2.7100100000000000e+00,  1.8065139255849180e-01, -2.8500166666666665e-01, -2.0257186305929174e+09, -2.8500166666666665e-01, -2.0257186305929174e+09, -3.3547506729317716e-01, -1.4532346854312062e+09,  2.9800000000000000e+02,  1.6606631375833505e-01, -4.4569373130798584e-05,  1.6606631375833555e-01, -4.3913722038268806e-05
 2.7200100000000003e+00,  1.8202175301261983e-01, -2.8666833333333330e-01, -2.0387531119647951e+09, -2.8666833333333330e-01, -2.0387531119647951e+09, -3.3780879608567710e-01, -1.4591962298189785e+09,  2.9800000000000000e+02,  1.6722632237853913e-01,  9.3206763267516887e-06,  1.6722632237853960e-01,  1.2025237083435262e-05
 2.7300100000000000e+00,  1.8339695209162377e-01, -2.8833500000000001e-01, -2.0518299807930193e+09, -2.8833500000000001e-01, -2.0518299807930193e+09, -3.4014798391063888e-01, -1.4651445654692996e+09,  2.9800000000000000e+02,  1.6838907570502215e-01,  2.1964311599731357e-05,  1.6838907570502237e-01,  2.1129846572876112e-05
 2.7400100000000003e+00,  1.8477701814954500e-01, -2.9000166666666660e-01, -2.0649495304638207e+09, -2.9000166666666660e-01, -2.0649495304638207e+09, -3.4249265636737125e-01, -1.4710796876344428e+09,  2.9800000000000000e+02,  1.6955458654289854e-01,  2.8714537620544179e-05,  1.6955458654289862e-01,  4.2825937271118198e-05
 2.7500100000000001e+00,  1.8616197977372398e-01, -2.9166833333333331e-01, -2.0781120571347849e+09, -2.9166833333333331e-01, -2.0781120571347849e+09, -3.4484283923567416e-01, -1.4770015915757976e+09,  2.9800000000000000e+02,  1.7072286778751733e-01, -5.1483511924742636e-06,  1.7072286778751730e-01, -2.2947788238525120e-06
 2.7600100000000003e+00,  1.8755186578727406e-01, -2.9333499999999996e-01, -2.0913178597672453e+09, -2.9333499999999996e-01, -2.0913178597672453e+09, -3.4719855847753600e-01, -1.4829102725636694e+09,  2.9800000000000000e+02,  1.7189393242531209e-01, -5.1565468311309747e-05,  1.7189393242531195e-01, -5.9224665164947483e-05
 2.7700100000000001e+00,  1.8894670525158991e-01, -2.9500166666666666e-01, -2.1045672401594450e+09, -2.9500166666666666e-01, -2.1045672401594450e+09, -3.4955984023885667e-01, -1.4888057258772993e+09,  2.9800000000000000e+02,  1.7306779353466203e-01,  2.7120113372802599e-05,  1.7306779353466187e-01,  2.1114945411682414e-05
 2.7800100000000003e+00,  1.9034652746888331e-01, -2.9666833333333331e-01, -2.1178605029808784e+09, -2.9666833333333331e-01, -2.1178605029808784e+09, -3.5192671085118848e-01, -1.4946879468053818e+09,  2.9800000000000000e+02,  1.7424446428676060e-01, -2.6240944862365750e-05,  1.7424446428676035e-01, -3.5323202610015950e-05
 2.7900100000000001e+00,  1.9175136198475967e-01, -2.9833500000000002e-01, -2.1311979558051903e+09, -2.9833500000000002e-01, -2.1311979558051903e+09, -3.5429919683349825e-01, -1.5005569306452222e+09,  2.9800000000000000e+02,  1.7542395794649948e-01, -3.7170946598053168e-05,  1.7542395794649934e-01, -2.6486814022064128e-05
 2.8000099999999999e+00,  1.9316123859082068e-01, -3.0000166666666667e-01, -2.1445799091457314e+09, -3.0000166666666667e-01, -2.1445799091457314e+09, -3.5667732489394788e-01, -1.5064126727034297e+09,  2.9800000000000000e+02,  1.7660628787335736e-01, -2.7395784854888970e-05,  1.7660628787335728e-01, -2.6918947696685669e-05
 2.8100100000000001e+00,  1.9457618732730678e-01, -3.0166833333333326e-01, -2.1580066764903326e+09, -3.0166833333333326e-01, -2.1580066764903326e+09, -3.5906112193170159e-01, -1.5122551682957101e+09,  2.9800000000000000e+02,  1.7779146752230288e-01, -7.0676207542419610e-05,  1.7779146752230279e-01, -6.7859888076782186e-05
 2.8200099999999999e+00,  1.9599623848577219e-01, -3.0333499999999997e-01, -2.1714785743365579e+09, -3.0333499999999997e-01, -2.1714785743365579e+09, -3.6145061503874953e-01, -1.5180844127466359e+09,  2.9800000000000000e+02,  1.7897951044470845e-01,  2.7708709239959608e-05,  1.7897951044470825e-01,  1.9378960132598850e-05
 2.8300100000000001e+00,  1.9742142261179213e-01, -3.0500166666666662e-01, -2.1849959222287092e+09, -3.0500166666666662e-01, -2.1849959222287092e+09, -3.6384583150175498e-01, -1.5239004013902972e+09,  2.9800000000000000e+02,  1.8017043028927074e-01,  2.6941299438476549e-05,  1.8017043028927079e-01,  2.6628375053405748e-05
 2.8400099999999999e+00,  1.9885177050771308e-01, -3.0666833333333327e-01, -2.1985590427934718e+09, -3.0666833333333327e-01, -2.1985590427934718e+09, -3.6624679880392630e-01, -1.5297031295696189e+09,  2.9800000000000000e+02,  1.8136424080294983e-01,  5.1930546760556914e-06,  1.8136424080295016e-01,  1.5437602996826226e-05
 2.8500100000000002e+00,  2.0028731323543286e-01, -3.0833499999999991e-01, -2.2121682617775192e+09, -3.0833499999999991e-01, -2.2121682617775192e+09, -3.6865354462690542e-01, -1.5354925926366968e+09,  2.9800000000000000e+02,  1.8256095583191215e-01,  1.3910233974456624e-05,  1.8256095583191262e-01,  1.4558434486389160e-05
 2.8600099999999999e+00,  2.0172808211922033e-01, -3.1000166666666662e-01, -2.2258239080853214e+09, -3.1000166666666662e-01, -2.2258239080853214e+09, -3.7106609685268627e-01, -1.5412687859528852e+09,  2.9800000000000000e+02,  1.8376058932248879e-01, -3.0040740966796739e-05,  1.8376058932248940e-01, -2.1480023860931613e-05
 2.8700100000000002e+00,  2.0317410874857278e-01, -3.1166833333333327e-01, -2.2395263138169870e+09, -3.1166833333333327e-01, -2.2395263138169870e+09, -3.7348448356555103e-01, -1.5470317048885314e+09,  2.9800000000000000e+02,  1.8496315532214525e-01,  1.6167759895323894e-06,  1.8496315532214566e-01, -1.8700957298279893e-06
 2.8800100000000000e+00,  2.0462542498110900e-01, -3.1333499999999997e-01, -2.2532758143076897e+09, -3.1333499999999997e-01, -2.2532758143076897e+09, -3.7590873305403177e-01, -1.5527813448234322e+09,  2.9800000000000000e+02,  1.8616866798046014e-01, -7.0296227931976237e-05,  1.8616866798046056e-01, -6.4790248870849582e-05
 2.8900100000000002e+00,  2.0608206294550682e-01, -3.1500166666666662e-01, -2.2670727481660728e+09, -3.1500166666666662e-01, -2.2670727481660728e+09, -3.7833887381289594e-01, -1.5585177011461709e+09,  2.9800000000000000e+02,  1.8737714155012133e-01,  2.4303793907165527e-05,  1.8737714155012170e-01,  1.9215047359466471e-05
 2.9000100000000000e+00,  2.0754405504447224e-01, -3.1666833333333333e-01, -2.2809174573154707e+09, -3.1666833333333333e-01, -2.2809174573154707e+09, -3.8077493454515754e-01, -1.5642407692550242e+09,  2.9800000000000000e+02,  1.8858859038792697e-01,  3.5122036933898817e-05,  1.8858859038792727e-01,  2.6643276214599582e-05
 2.9100100000000002e+00,  2.0901143395775462e-01, -3.1833499999999992e-01, -2.2948102870333152e+09, -3.1833499999999992e-01, -2.2948102870333152e+09, -3.8321694416410862e-01, -1.5699505445571983e+09,  2.9800000000000000e+02,  1.8980302895580495e-01,  1.3649463653564345e-05,  1.8980302895580531e-01,  1.3016164302825738e-05
 2.9200100000000000e+00,  2.1048423264520033e-01, -3.2000166666666663e-01, -2.3087515859926424e+09, -3.2000166666666663e-01, -2.3087515859926424e+09, -3.8566493179538031e-01, -1.5756470224691052e+09,  2.9800000000000000e+02,  1.9102047182184220e-01,  5.7943165302276449e-05,  1.9102047182184245e-01,  4.6469271183013835e-05
 2.9300100000000002e+00,  2.1196248434984655e-01, -3.2166833333333328e-01, -2.3227417063041630e+09, -3.2166833333333328e-01, -2.3227417063041630e+09, -3.8811892677902676e-01, -1.5813301984166138e+09,  2.9800000000000000e+02,  1.9224093366132566e-01,  2.3737549781799316e-05,  1.9224093366132594e-01,  1.5109777450561632e-05
 2.9400100000000000e+00,  2.1344622260105789e-01, -3.2333499999999998e-01, -2.3367810035579772e+09, -3.2333499999999998e-01, -2.3367810035579772e+09, -3.9057895867163400e-01, -1.5870000678346286e+09,  2.9800000000000000e+02,  1.9346442925779855e-01,  1.3016164302825955e-05,  1.9346442925779886e-01,  1.2949109077453532e-05
 2.9500100000000002e+00,  2.1493548121770820e-01, -3.2500166666666663e-01, -2.3508698368670864e+09, -3.2500166666666663e-01, -2.3508698368670864e+09, -3.9304505724845801e-01, -1.5926566261674678e+09,  2.9800000000000000e+02,  1.9469097350412767e-01, -1.4096498489379883e-05,  1.9469097350412801e-01, -5.6847929954526640e-06
 2.9600100000000000e+00,  2.1643029431139957e-01, -3.2666833333333334e-01, -2.3650085689107442e+09, -3.2666833333333334e-01, -2.3650085689107442e+09, -3.9551725250558456e-01, -1.5982998688687065e+09,  2.9800000000000000e+02,  1.9592058140358448e-01, -6.6384673118591471e-05,  1.9592058140358476e-01, -6.1191618442535238e-05
 2.9700100000000003e+00,  2.1793069628973194e-01, -3.2833499999999999e-01, -2.3791975659784636e+09, -3.2833499999999999e-01, -2.3791975659784636e+09, -3.9799557466212027e-01, -1.6039297914010086e+09,  2.9800000000000000e+02,  1.9715326807094063e-01,  5.5193901062011610e-05,  1.9715326807094055e-01,  4.5239925384521539e-05
 2.9800100000000000e+00,  2.1943672185961094e-01, -3.3000166666666669e-01, -2.3934371980160379e+09, -3.3000166666666669e-01, -2.3934371980160379e+09, -4.0048005416240823e-01, -1.6095463892368953e+09,  2.9800000000000000e+02,  1.9838904873357324e-01, -1.7032027244568034e-05,  1.9838904873357327e-01, -1.5974044799804769e-05
 2.9900100000000003e+00,  2.2094840603060864e-01, -3.3166833333333329e-01, -2.4077278386694498e+09, -3.3166833333333329e-01, -2.4077278386694498e+09, -4.0297072167827258e-01, -1.6151496578576055e+09,  2.9800000000000000e+02,  1.9962793873259158e-01,  2.2798776626584746e-06,  1.9962793873259166e-01, -5.7667493820191243e-06
 3.0000100000000001e+00,  2.2246578411836260e-01, -3.3333499999999999e-01, -2.4220698653325291e+09, -3.3333499999999999e-01, -2.4220698653325291e+09, -4.0546760811128940e-01, -1.6207395927540534e+09,  2.9800000000000000e+02,  2.0086995352396891e-01,  1.6242265701293701e-05,  2.0086995352396914e-01,  2.2843480110168538e-05
 3.0100100000000003e+00,  2.2398889174802791e-01, -3.3500166666666664e-01, -2.4364636591934009e+09, -3.3500166666666664e-01, -2.4364636591934009e+09, -4.0797074459508775e-01, -1.6263161894264817e+09,  2.9800000000000000e+02,  2.0211510867969462e-01, -5.9902667999265410e-06,  2.0211510867969501e-01, -4.2170286178588867e-06
 3.0200100000000001e+00,  2.2551776485777283e-01, -3.3666833333333329e-01, -2.4509096052820377e+09, -3.3666833333333329e-01, -2.4509096052820377e+09, -4.1048016249767927e-01, -1.6318794433843853e+09,  2.9800000000000000e+02,  2.0336341988893861e-01, -1.3470649719238146e-05,  2.0336341988893919e-01, -1.2964010238647488e-05
 3.0300100000000003e+00,  2.2705243970232517e-01, -3.3833499999999994e-01, -2.4654080925188589e+09, -3.3833499999999994e-01, -2.4654080925188589e+09, -4.1299589342381593e-01, -1.6374293501466637e+09,  2.9800000000000000e+02,  2.0461490295923021e-01,  2.4721026420592855e-05,  2.0461490295923102e-01,  3.1158328056335829e-05
 3.0400100000000001e+00,  2.2859295285656700e-01, -3.4000166666666665e-01, -2.4799595137640619e+09, -3.4000166666666665e-01, -2.4799595137640619e+09, -4.1551796921737943e-01, -1.6429659052417588e+09,  2.9800000000000000e+02,  2.0586957381765239e-01,  4.2319297790526260e-06,  2.0586957381765328e-01,  1.7583370208740776e-06
 3.0500099999999999e+00,  2.3013934121917909e-01, -3.4166833333333330e-01, -2.4945642658670206e+09, -3.4166833333333330e-01, -2.4945642658670206e+09, -4.1804642196379893e-01, -1.6484891042073491e+09,  2.9800000000000000e+02,  2.0712744851205150e-01, -3.5345554351806966e-05,  2.0712744851205239e-01, -4.1157007217406874e-05
 3.0600100000000001e+00,  2.3169164201633780e-01, -3.4333499999999995e-01, -2.5092227497171369e+09, -3.4333499999999995e-01, -2.5092227497171369e+09, -4.2058128399249939e-01, -1.6539989425904984e+09,  2.9800000000000000e+02,  2.0838854321226105e-01, -2.1174550056457818e-05,  2.0838854321226219e-01, -5.5730342864986440e-06
 3.0700099999999999e+00,  2.3324989280546099e-01, -3.4500166666666665e-01, -2.5239353702955179e+09, -3.4500166666666665e-01, -2.5239353702955179e+09, -4.2312258787938456e-01, -1.6594954159478493e+09,  2.9800000000000000e+02,  2.0965287421134263e-01,  1.0773539543151774e-05,  2.0965287421134382e-01,  1.0251998901367269e-05
 3.0800100000000001e+00,  2.3481413147900854e-01, -3.4666833333333325e-01, -2.5387025367269368e+09, -3.4666833333333325e-01, -2.5387025367269368e+09, -4.2567036644934586e-01, -1.6649785198454711e+09,  2.9800000000000000e+02,  2.1092045792684072e-01, -1.5348196029662706e-05,  2.1092045792684211e-01, -1.9222497940063422e-05
 3.0900099999999999e+00,  2.3638439626833613e-01, -3.4833499999999995e-01, -2.5535246623325357e+09, -3.4833499999999995e-01, -2.5535246623325357e+09, -4.2822465277880817e-01, -1.6704482498586791e+09,  2.9800000000000000e+02,  2.1219131090205665e-01,  6.1780214309692383e-05,  2.1219131090205803e-01,  6.0930848121642687e-05
 3.1000100000000002e+00,  2.3796072574760346e-01, -3.5000166666666660e-01, -2.5684021646846251e+09, -3.5000166666666660e-01, -2.5684021646846251e+09, -4.3078548019830559e-01, -1.6759046015726895e+09,  2.9800000000000000e+02,  2.1346544980733401e-01, -3.2767653465270779e-05,  2.1346544980733534e-01, -1.9386410713195692e-05
 3.1100099999999999e+00,  2.3954315883773480e-01, -3.5166833333333331e-01, -2.5833354656599030e+09, -3.5166833333333331e-01, -2.5833354656599030e+09, -4.3335288229509183e-01, -1.6813475705816965e+09,  2.9800000000000000e+02,  2.1474289144136671e-01, -4.8622488975524713e-05,  2.1474289144136785e-01, -5.2616000175476264e-05
 3.1200100000000002e+00,  2.4113173481044042e-01, -3.5333499999999990e-01, -2.5983249914961257e+09, -3.5333499999999990e-01, -2.5983249914961257e+09, -4.3592689291578191e-01, -1.6867771524896584e+09,  2.9800000000000000e+02,  2.1602365273251742e-01, -5.8189034461974989e-05,  2.1602365273251878e-01, -4.7549605369567844e-05
 3.1300100000000000e+00,  2.4272649329229135e-01, -3.5500166666666666e-01, -2.6133711728479710e+09, -3.5500166666666666e-01, -2.6133711728479710e+09, -4.3850754616903126e-01, -1.6921933429099872e+09,  2.9800000000000000e+02,  2.1730775074015887e-01, -1.1309981346130317e-05,  2.1730775074016001e-01, -2.8327107429504340e-05
 3.1400100000000002e+00,  2.4432747426885404e-01, -3.5666833333333325e-01, -2.6284744448444085e+09, -3.5666833333333325e-01, -2.6284744448444085e+09, -4.4109487642824635e-01, -1.6975961374656563e+09,  2.9800000000000000e+02,  2.1859520265602753e-01,  2.0980834960937690e-05,  2.1859520265602850e-01,  1.7166137695312500e-05
 3.1500100000000000e+00,  2.4593471808888381e-01, -3.5833500000000001e-01, -2.6436352471468649e+09, -3.5833500000000001e-01, -2.6436352471468649e+09, -4.4368891833433305e-01, -1.7029855317892349e+09,  2.9800000000000000e+02,  2.1988602580559877e-01, -2.2470951080322293e-05,  2.1988602580559974e-01, -3.3780932426452745e-05
 3.1600100000000002e+00,  2.4754826546857650e-01, -3.6000166666666661e-01, -2.6588540240077324e+09, -3.6000166666666661e-01, -2.6588540240077324e+09, -4.4628970679847701e-01, -1.7083615215225751e+09,  2.9800000000000000e+02,  2.2118023764947747e-01,  6.6459178924560276e-06,  2.2118023764947853e-01,  9.0301036834715984e-06
 3.1700100000000000e+00,  2.4916815749588539e-01, -3.6166833333333331e-01, -2.6741312243312492e+09, -3.6166833333333331e-01, -2.6741312243312492e+09, -4.4889727700496634e-01, -1.7137241023174109e+09,  2.9800000000000000e+02,  2.2247785578480819e-01, -2.1338462829590115e-05,  2.2247785578480919e-01, -3.1322240829467909e-05
 3.1800100000000002e+00,  2.5079443563489479e-01, -3.6333499999999996e-01, -2.6894673017333736e+09, -3.6333499999999996e-01, -2.6894673017333736e+09, -4.5151166441404461e-01, -1.7190732698347228e+09,  2.9800000000000000e+02,  2.2377889794670258e-01,  4.1827559471130371e-05,  2.2377889794670355e-01,  3.6284327507018772e-05
 3.1900100000000000e+00,  2.5242714173026060e-01, -3.6500166666666667e-01, -2.7048627146048017e+09, -3.6500166666666667e-01, -2.7048627146048017e+09, -4.5413290476480594e-01, -1.7244090197454910e+09,  2.9800000000000000e+02,  2.2508338200968570e-01, -3.9622187614440728e-05,  2.2508338200968650e-01, -4.6953558921814236e-05
 3.2000100000000002e+00,  2.5406631801171498e-01, -3.6666833333333332e-01, -2.7203179261723127e+09, -3.6666833333333332e-01, -2.7203179261723127e+09, -4.5676103407812496e-01, -1.7297313477297587e+09,  2.9800000000000000e+02,  2.2639132598916348e-01,  8.8363885879516602e-06,  2.2639132598916434e-01,  1.8745660781860460e-05
 3.2100100000000000e+00,  2.5571200709863284e-01, -3.6833500000000002e-01, -2.7358334045641508e+09, -3.6833500000000002e-01, -2.7358334045641508e+09, -4.5939608865962850e-01, -1.7350402494776402e+09,  2.9800000000000000e+02,  2.2770274804290525e-01,  2.9802322387695394e-05,  2.2770274804290602e-01,  3.6850571632385145e-05
 3.2200100000000003e+00,  2.5736425200466928e-01, -3.7000166666666662e-01, -2.7514096228739014e+09, -3.7000166666666662e-01, -2.7514096228739014e+09, -4.6203810510270327e-01, -1.7403357206887183e+09,  2.9800000000000000e+02,  2.2901766647254998e-01, -6.8843364715578882e-06,  2.2901766647255054e-01, -1.0117888450622640e-05
 3.2300100000000000e+00,  2.5902309614246233e-01, -3.7166833333333332e-01, -2.7670470592265053e+09, -3.7166833333333332e-01, -2.7670470592265053e+09, -4.6468712029154757e-01, -1.7456177570721464e+09,  2.9800000000000000e+02,  2.3033609972513105e-01, -6.3702464103698893e-05,  2.3033609972513142e-01, -8.0138444900512424e-05
 3.2400100000000003e+00,  2.6068858332840367e-01, -3.7333499999999997e-01, -2.7827461968450589e+09, -3.7333499999999997e-01, -2.7827461968450589e+09, -4.6734317140425657e-01, -1.7508863543465884e+09,  2.9800000000000000e+02,  2.3165806639462011e-01,  2.1636486053466688e-05,  2.3165806639462044e-01,  1.4916062355041531e-05
 3.2500100000000001e+00,  2.6236075778748108e-01, -3.7500166666666668e-01, -2.7985075241196122e+09, -3.7500166666666668e-01, -2.7985075241196122e+09, -4.7000629591595783e-01, -1.7561415082407355e+09,  2.9800000000000000e+02,  2.3298358522349241e-01,  6.1377882957458252e-05,  2.3298358522349299e-01,  7.5697898864746419e-05
 3.2600100000000003e+00,  2.6403966415819041e-01, -3.7666833333333327e-01, -2.8143315346754589e+09, -3.7666833333333327e-01, -2.8143315346754589e+09, -4.7267653160198042e-01, -1.7613832144928238e+09,  2.9800000000000000e+02,  2.3431267510431392e-01,  1.6227364540100098e-05,  2.3431267510431419e-01,  5.1110982894897190e-06
 3.2700100000000001e+00,  2.6572534749752241e-01, -3.7833499999999998e-01, -2.8302187274431543e+09, -3.7833499999999998e-01, -2.8302187274431543e+09, -4.7535391654107206e-01, -1.7666114688505285e+09,  2.9800000000000000e+02,  2.3564535508134857e-01,  3.0070543289184462e-05,  2.3564535508134862e-01,  1.6629695892334228e-05
 3.2800100000000003e+00,  2.6741785328601914e-01, -3.8000166666666663e-01, -2.8461696067306590e+09, -3.8000166666666663e-01, -2.8461696067306590e+09, -4.7803848911865598e-01, -1.7718262670714986e+09,  2.9800000000000000e+02,  2.3698164435218624e-01,  1.0892748832702555e-05,  2.3698164435218638e-01,  1.8030405044556748e-06
 3.2900100000000001e+00,  2.6911722743291022e-01, -3.8166833333333333e-01, -2.8621846822951736e+09, -3.8166833333333333e-01, -2.8621846822951736e+09, -4.8073028803013357e-01, -1.7770276049229541e+09,  2.9800000000000000e+02,  2.3832156226939588e-01, -7.5697898864745010e-06,  2.3832156226939605e-01,  8.7916851043690330e-07
 3.3000100000000003e+00,  2.7082351628132173e-01, -3.8333499999999998e-01, -2.8782644694170389e+09, -3.8333499999999998e-01, -2.8782644694170389e+09, -4.8342935228423123e-01, -1.7822154781818593e+09,  2.9800000000000000e+02,  2.3966512834219708e-01,  1.2248754501342773e-05,  2.3966512834219719e-01,  6.2137842178343100e-06
 3.3100100000000001e+00,  2.7253676661356313e-01, -3.8500166666666669e-01, -2.8944094889746699e+09, -3.8500166666666669e-01, -2.8944094889746699e+09, -4.8613572120639159e-01, -1.7873898826349819e+09,  2.9800000000000000e+02,  2.4101236223815614e-01, -9.5367431640614158e-07,  2.4101236223815622e-01, -2.1845102310180664e-05
 3.3200099999999999e+00,  2.7425702565649507e-01, -3.8666833333333328e-01, -2.9106202675203643e+09, -3.8666833333333328e-01, -2.9106202675203643e+09, -4.8884943444221191e-01, -1.7925508140787439e+09,  2.9800000000000000e+02,  2.4236328378490596e-01, -2.0384788513183675e-05,  2.4236328378490593e-01, -4.0531158447265327e-05
 3.3300100000000001e+00,  2.7598434108697656e-01, -3.8833499999999993e-01, -2.9268973373577032e+09, -3.8833499999999993e-01, -2.9268973373577032e+09, -4.9157053196092881e-01, -1.7976982683192801e+09,  2.9800000000000000e+02,  2.4371791297188797e-01,  2.7120113372802734e-05,  2.4371791297188794e-01,  4.3630599975585992e-05
 3.3400099999999999e+00,  2.7771876103739213e-01, -3.9000166666666664e-01, -2.9432412366206884e+09, -3.9000166666666664e-01, -2.9432412366206884e+09, -4.9429905405894992e-01, -1.8028322411727979e+09,  2.9800000000000000e+02,  2.4507626995211704e-01, -4.0799379348754856e-05,  2.4507626995211673e-01, -2.9370188713073839e-05
 3.3500100000000002e+00,  2.7946033410126503e-01, -3.9166833333333323e-01, -2.9596525093523507e+09, -3.9166833333333323e-01, -2.9596525093523507e+09, -4.9703504136343518e-01, -1.8079527284648037e+09,  2.9800000000000000e+02,  2.4643837504397401e-01,  2.3916363716125353e-05,  2.4643837504397353e-01,  1.6853213310241753e-05
 3.3600099999999999e+00,  2.8120910933895471e-01, -3.9333499999999993e-01, -2.9761317055875506e+09, -3.9333499999999993e-01, -2.9761317055875506e+09, -4.9977853483592677e-01, -1.8130597260311036e+09,  2.9800000000000000e+02,  2.4780424873301826e-01, -4.0203332901000922e-05,  2.4780424873301785e-01, -3.6209821701049534e-05
 3.3700100000000002e+00,  2.8296513628343856e-01, -3.9500166666666658e-01, -2.9926793814338255e+09, -3.9500166666666658e-01, -2.9926793814338255e+09, -5.0252957577602664e-01, -1.8181532297167830e+09,  2.9800000000000000e+02,  2.4917391167382971e-01,  7.8842043876647678e-05,  2.4917391167382943e-01,  7.2583556175232340e-05
 3.3800100000000000e+00,  2.8472846494618281e-01, -3.9666833333333329e-01, -3.0092960991571941e+09, -3.9666833333333329e-01, -3.0092960991571941e+09, -5.0528820582513012e-01, -1.8232332353773808e+09,  2.9800000000000000e+02,  2.5054738469187166e-01,  2.0205974578857476e-05,  2.5054738469187132e-01,  1.0892748832702854e-05
 3.3900100000000002e+00,  2.8649914582310465e-01, -3.9833499999999994e-01, -3.0259824272655087e+09, -3.9833499999999994e-01, -3.0259824272655087e+09, -5.0805446697020451e-01, -1.8282997388777111e+09,  2.9800000000000000e+02,  2.5192468878538349e-01, -1.0475516319274957e-05,  2.5192468878538316e-01, -7.8231096267698298e-06
 3.4000100000000000e+00,  2.8827722990061966e-01, -4.0000166666666664e-01, -3.0427389405964866e+09, -4.0000166666666664e-01, -3.0427389405964866e+09, -5.1082840154762654e-01, -1.8333527360926800e+09,  2.9800000000000000e+02,  2.5330584512729715e-01, -3.2678246498108154e-05,  2.5330584512729670e-01, -4.0978193283080621e-05
 3.4100100000000002e+00,  2.9006276866179004e-01, -4.0166833333333329e-01, -3.0595662204053307e+09, -4.0166833333333329e-01, -3.0595662204053307e+09, -5.1361005224706746e-01, -1.8383922229069614e+09,  2.9800000000000000e+02,  2.5469087506718097e-01, -1.9192695617675727e-05,  2.5469087506718074e-01, -1.3962388038635037e-05
 3.4200100000000000e+00,  2.9185581409255884e-01, -4.0333500000000000e-01, -3.0764648544547124e+09, -4.0333500000000000e-01, -3.0764648544547124e+09, -5.1639946211543675e-01, -1.8434181952152143e+09,  2.9800000000000000e+02,  2.5607980013321102e-01, -1.1637806892394803e-05,  2.5607980013321080e-01, -1.8432736396789226e-05
 3.4300100000000002e+00,  2.9365641868808845e-01, -4.0500166666666659e-01, -3.0934354371056156e+09, -4.0500166666666659e-01, -3.0934354371056156e+09, -5.1919667456087859e-01, -1.8484306489219041e+09,  2.9800000000000000e+02,  2.5747264203416925e-01, -2.1398067474364611e-05,  2.5747264203416909e-01, -2.8401613235473172e-05
 3.4400100000000000e+00,  2.9546463545918816e-01, -4.0666833333333330e-01, -3.1104785694100180e+09, -4.0666833333333330e-01, -3.1104785694100180e+09, -5.2200173335682531e-01, -1.8534295799413176e+09,  2.9800000000000000e+02,  2.5886942266147039e-01,  2.9116868972779242e-05,  2.5886942266147017e-01,  3.8981437683106173e-05
 3.4500100000000002e+00,  2.9728051793884802e-01, -4.0833499999999995e-01, -3.1275948592057219e+09, -4.0833499999999995e-01, -3.1275948592057219e+09, -5.2481468264610653e-01, -1.8584149841979153e+09,  2.9800000000000000e+02,  2.6027016409121584e-01, -2.8774142265317520e-05,  2.6027016409121545e-01, -3.2514333724973905e-05
 3.4600100000000000e+00,  2.9910412018887278e-01, -4.1000166666666665e-01, -3.1447849212110109e+09, -4.1000166666666665e-01, -3.1447849212110109e+09, -5.2763556694511893e-01, -1.8633868576256256e+09,  2.9800000000000000e+02,  2.6167488858628035e-01,  4.7788023948674638e-05,  2.6167488858627996e-01,  3.7208199501042124e-05
 3.4700100000000003e+00,  3.0093549680661558e-01, -4.1166833333333330e-01, -3.1620493771237707e+09, -4.1166833333333330e-01, -3.1620493771237707e+09, -5.3046443114805197e-01, -1.8683451961688399e+09,  2.9800000000000000e+02,  2.6308361859842222e-01, -2.2143125534044092e-05,  2.6308361859842178e-01, -2.6017427444446027e-05
 3.4800100000000000e+00,  3.0277470293182174e-01, -4.1333500000000001e-01, -3.1793888557189646e+09, -4.1333500000000001e-01, -3.1793888557189646e+09, -5.3330132053117574e-01, -1.8732899957814264e+09,  2.9800000000000000e+02,  2.6449637677042964e-01, -4.7147274017295956e-05,  2.6449637677042920e-01, -3.3557415008509523e-05
 3.4900100000000003e+00,  3.0462179425357616e-01, -4.1500166666666666e-01, -3.1968039929505472e+09, -4.1500166666666666e-01, -3.1968039929505472e+09, -5.3614628075718807e-01, -1.8782212524273841e+09,  2.9800000000000000e+02,  2.6591318593829322e-01,  6.0796737672083470e-06,  2.6591318593829261e-01,  1.1920928966412103e-07
 3.5000100000000001e+00,  3.0647682701735968e-01, -4.1666833333333331e-01, -3.2142954320538902e+09, -4.1666833333333331e-01, -3.2142954320538902e+09, -5.3899935787962583e-01, -1.8831389620807710e+09,  2.9800000000000000e+02,  2.6733406913341057e-01,  2.5302171707556210e-05,  2.6733406913341007e-01,  2.1308660507595050e-05
 3.5100100000000003e+00,  3.0833985803222219e-01, -4.1833499999999996e-01, -3.2318638236497822e+09, -4.1833499999999996e-01, -3.2318638236497822e+09, -5.4186059834733724e-01, -1.8880431207255137e+09,  2.9800000000000000e+02,  2.6875904958482477e-01,  4.7340989114347167e-05,  2.6875904958482433e-01,  4.1931867600964313e-05
 3.5200100000000001e+00,  3.1021094467805993e-01, -4.2000166666666666e-01, -3.2495098258508954e+09, -4.2000166666666666e-01, -3.2495098258508954e+09, -5.4473004900901922e-01, -1.8929337243556252e+09,  2.9800000000000000e+02,  2.7018815072149094e-01, -1.2144446366939027e-05,  2.7018815072149061e-01, -3.4570693909632489e-06
 3.5300100000000003e+00,  3.1209014491301568e-01, -4.2166833333333331e-01, -3.2672341043692737e+09, -4.2166833333333331e-01, -3.2672341043692737e+09, -5.4760775711782017e-01, -1.8978107689749353e+09,  2.9800000000000000e+02,  2.7162139617457914e-01, -1.8924474689657831e-05,  2.7162139617457881e-01, -2.3156404468794699e-05
 3.5400100000000001e+00,  3.1397751728099255e-01, -4.2333499999999996e-01, -3.2850373326266894e+09, -4.2333499999999996e-01, -3.2850373326266894e+09, -5.5049377033600921e-01, -1.9026742505974050e+09,  2.9800000000000000e+02,  2.7305880977980768e-01, -3.8295983010184359e-06,  2.7305880977980740e-01, -8.8065861399734546e-06
 3.5500100000000003e+00,  3.1587312091928910e-01, -4.2500166666666661e-01, -3.3029201918659711e+09, -4.2500166666666661e-01, -3.3029201918659711e+09, -5.5338813673971188e-01, -1.9075241652468948e+09,  2.9800000000000000e+02,  2.7450041557981253e-01,  1.5501678054276324e-04,  2.7450041557981220e-01,  1.5242397849449252e-04
 3.5600100000000001e+00,  3.1777701556635607e-01, -4.2666833333333332e-01, -3.3208833712651267e+09, -4.2666833333333332e-01, -3.3208833712651267e+09, -5.5629090482371746e-01, -1.9123605089574275e+09,  2.9800000000000000e+02,  2.7594623782654892e-01,  4.5810640211649267e-04,  2.7594623782654853e-01,  4.4086575861317090e-04
 3.5700099999999999e+00,  3.1968926156968358e-01, -4.2833499999999997e-01, -3.3389275680494542e+09, -4.2833499999999997e-01, -3.3389275680494542e+09, -5.5920212350635135e-01, -1.9171832777711189e+09,  2.9800000000000000e+02,  2.7739630098373524e-01,  2.8284043280364379e-03,  2.7739630098373513e-01,  2.8343200890213055e-03
 3.5800100000000001e+00,  3.2160991989376253e-01, -4.3000166666666662e-01, -3.3570534876284504e+09, -4.3000166666666662e-01, -3.3570534876284504e+09, -5.6212184213442429e-01, -1.9219924677493501e+09,  2.9800000000000000e+02,  2.7885062972929014e-01,  1.2814998641998891e-05,  2.7885062972929014e-01,  1.0728836074839240e-05
 3.5900099999999999e+00,  3.2353905212832829e-01, -4.3166833333333332e-01, -3.3752618436735191e+09, -4.3166833333333332e-01, -3.3752618436735191e+09, -5.6505011048824927e-01, -1.9267880749483094e+09,  2.9800000000000000e+02,  2.8030924895792386e-01,  2.3365020768199298e-05,  2.8030924895792386e-01,  2.2143125550305136e-05
 3.6000100000000002e+00,  3.2547672049651183e-01, -4.3333499999999991e-01, -3.3935533582847061e+09, -4.3333499999999991e-01, -3.3935533582847061e+09, -5.6798697878673510e-01, -1.9315700954450841e+09,  2.9800000000000000e+02,  2.8177218378359553e-01,  4.1633844392573020e-05,  2.8177218378359575e-01,  4.0426850335874694e-05
 3.6100099999999999e+00,  3.2742298786330420e-01, -4.3500166666666662e-01, -3.4119287620914226e+09, -4.3500166666666662e-01, -3.4119287620914226e+09, -5.7093249769255450e-01, -1.9363385253240962e+09,  2.9800000000000000e+02,  2.8323945954214413e-01,  1.6316771524775217e-05,  2.8323945954214436e-01,  9.1791153129774841e-06
 3.6200100000000002e+00,  3.2937791774408171e-01, -4.3666833333333327e-01, -3.4303887943832426e+09, -4.3666833333333327e-01, -3.4303887943832426e+09, -5.7388671831738580e-01, -1.9410933606797562e+09,  2.9800000000000000e+02,  2.8471110179390080e-01, -7.1525571937713353e-07,  2.8471110179390091e-01,  5.0514936627069074e-06
 3.6300100000000000e+00,  3.3134157431328448e-01, -4.3833499999999997e-01, -3.4489342032388859e+09, -4.3833499999999997e-01, -3.4489342032388859e+09, -5.7684969222723770e-01, -1.9458345976167474e+09,  2.9800000000000000e+02,  2.8618713632634901e-01, -7.7933073025465856e-05,  2.8618713632634907e-01, -8.1837177258265137e-05
 3.6400100000000002e+00,  3.3331402241323693e-01, -4.4000166666666657e-01, -3.4675657456561470e+09, -4.4000166666666657e-01, -3.4675657456561470e+09, -5.7982147144784701e-01, -1.9505622322495420e+09,  2.9800000000000000e+02,  2.8766758915682633e-01,  1.9147992152911922e-05,  2.8766758915682633e-01,  1.4171004314162035e-05
 3.6500100000000000e+00,  3.3529532756310981e-01, -4.4166833333333327e-01, -3.4862841876865702e+09, -4.4166833333333327e-01, -3.4862841876865702e+09, -5.8280210847016201e-01, -1.9552762607032804e+09,  2.9800000000000000e+02,  2.8915248653526182e-01,  1.4588236828408396e-05,  2.8915248653526204e-01,  1.2800097485156597e-05
 3.6600100000000002e+00,  3.3728555596803489e-01, -4.4333499999999992e-01, -3.5050903045694370e+09, -4.4333499999999992e-01, -3.5050903045694370e+09, -5.8579165625590390e-01, -1.9599766791129069e+09,  2.9800000000000000e+02,  2.9064185494696154e-01, -1.5392899491418447e-05,  2.9064185494696188e-01, -1.4424324013752402e-05
 3.6700100000000000e+00,  3.3928477452836764e-01, -4.4500166666666663e-01, -3.5239848808704481e+09, -4.4500166666666663e-01, -3.5239848808704481e+09, -5.8879016824321462e-01, -1.9646634836235726e+09,  2.9800000000000000e+02,  2.9213572111542951e-01, -4.7534704179448811e-05,  2.9213572111542996e-01, -3.3661723107842527e-05
 3.6800100000000002e+00,  3.4129305084910133e-01, -4.4666833333333328e-01, -3.5429687106222038e+09, -4.4666833333333328e-01, -3.5429687106222038e+09, -5.9179769835238671e-01, -1.9693366703906610e+09,  2.9800000000000000e+02,  2.9363411200523326e-01, -9.2163681930087409e-05,  2.9363411200523365e-01, -8.7335705703001939e-05
 3.6900100000000000e+00,  3.4331045324944054e-01, -4.4833499999999998e-01, -3.5620425974668102e+09, -4.4833499999999998e-01, -3.5620425974668102e+09, -5.9481430099168353e-01, -1.9739962355795622e+09,  2.9800000000000000e+02,  2.9513705482491448e-01, -1.4305114598425631e-05,  2.9513705482491481e-01, -2.6226042220903059e-06
 3.7000100000000002e+00,  3.4533705077253163e-01, -4.5000166666666658e-01, -3.5812073548022943e+09, -4.5000166666666658e-01, -3.5812073548022943e+09, -5.9784003106324191e-01, -1.9786421753661342e+09,  2.9800000000000000e+02,  2.9664457702993940e-01,  9.3758106772074898e-05,  2.9664457702993968e-01,  8.1717968527847580e-05
 3.7100100000000000e+00,  3.4737291319535873e-01, -4.5166833333333334e-01, -3.6004638059302225e+09, -4.5166833333333334e-01, -3.6004638059302225e+09, -6.0087494396907171e-01, -1.9832744859363406e+09,  2.9800000000000000e+02,  2.9815670632569879e-01,  1.9344687726886162e-04,  2.9815670632569907e-01,  1.8198788431136523e-04
 3.7200100000000003e+00,  3.4941811103881115e-01, -4.5333499999999993e-01, -3.6198127842026358e+09, -4.5333499999999993e-01, -3.6198127842026358e+09, -6.0391909561713786e-01, -1.9878931634840188e+09,  2.9800000000000000e+02,  2.9967347067055738e-01,  2.6320219241907430e-03,  2.9967347067055800e-01,  2.6394278013024547e-03
 3.7300100000000000e+00,  3.5147271557786142e-01, -4.5500166666666669e-01, -3.6392551331975470e+09, -4.5500166666666669e-01, -3.6392551331975470e+09, -6.0697254242754461e-01, -1.9924982042229805e+09,  2.9800000000000000e+02,  3.0119489827890494e-01,  3.6209822190794226e-06,  3.0119489827890544e-01,  4.8428774373729512e-06
 3.7400100000000003e+00,  3.5353679885207712e-01, -4.5666833333333329e-01, -3.6587917068308954e+09, -4.5666833333333329e-01, -3.6587917068308954e+09, -6.1003534133880621e-01, -1.9970896043621876e+09,  2.9800000000000000e+02,  3.0272101762437564e-01,  5.8412552384113801e-06,  3.0272101762437598e-01,  7.8529119995073319e-06
 3.7500100000000001e+00,  3.5561043367608342e-01, -4.5833499999999999e-01, -3.6784233695616136e+09, -4.5833499999999999e-01, -3.6784233695616136e+09, -6.1310754981421955e-01, -2.0016673601311355e+09,  2.9800000000000000e+02,  3.0425185744294819e-01,  4.9233436636129577e-05,  3.0425185744294847e-01,  4.7340989163992622e-05
 3.7600100000000003e+00,  3.5769369365037801e-01, -4.6000166666666664e-01, -3.6981509965312357e+09, -4.6000166666666664e-01, -3.6981509965312357e+09, -6.1618922584833302e-01, -2.0062314677671623e+09,  2.9800000000000000e+02,  3.0578744673622327e-01, -3.7118792480879143e-05,  3.0578744673622366e-01, -3.4928321786605027e-05
 3.7700100000000001e+00,  3.5978665317226050e-01, -4.6166833333333335e-01, -3.7179754737329674e+09, -4.6166833333333335e-01, -3.7179754737329674e+09, -6.1928042797351479e-01, -2.0107819235174844e+09,  2.9800000000000000e+02,  3.0732781477470117e-01, -1.4454126302916809e-05,  3.0732781477470156e-01, -1.9669532248836304e-06
 3.7800100000000003e+00,  3.6188938744695692e-01, -4.6333499999999994e-01, -3.7378976981816831e+09, -4.6333499999999994e-01, -3.7378976981816831e+09, -6.2238121526662260e-01, -2.0153187236400051e+09,  2.9800000000000000e+02,  3.0887299110111410e-01, -3.9622187553088085e-05,  3.0887299110111444e-01, -2.5525689068893237e-05
 3.7900100000000001e+00,  3.6400197249893873e-01, -4.6500166666666665e-01, -3.7579185780844374e+09, -4.6500166666666665e-01, -3.7579185780844374e+09, -6.2549164735578044e-01, -2.0198418644026914e+09,  2.9800000000000000e+02,  3.1042300553381608e-01, -3.0875205907667576e-05,  3.1042300553381630e-01, -2.9236078187808457e-05
 3.8000100000000003e+00,  3.6612448518343255e-01, -4.6666833333333330e-01, -3.7780390330160351e+09, -4.6666833333333330e-01, -3.7780390330160351e+09, -6.2861178442725718e-01, -2.0243513420839508e+09,  2.9800000000000000e+02,  3.1197788817022098e-01, -5.1066279210592474e-05,  3.1197788817022115e-01, -5.9738755052219901e-05
 3.8100100000000001e+00,  3.6825700319813082e-01, -4.6833500000000000e-01, -3.7982599940965233e+09, -4.6833500000000000e-01, -3.7982599940965233e+09, -6.3174168723245350e-01, -2.0288471529722648e+09,  2.9800000000000000e+02,  3.1353766939029792e-01,  9.5114112706461227e-05,  3.1353766939029792e-01,  8.3819032450497752e-05
 3.8200099999999999e+00,  3.7039960509510356e-01, -4.7000166666666665e-01, -3.8185824041737671e+09, -4.7000166666666665e-01, -3.8185824041737671e+09, -6.3488141709500223e-01, -2.0333292933667488e+09,  2.9800000000000000e+02,  3.1510237986011880e-01,  2.9943883910539884e-04,  3.1510237986011908e-01,  3.0238926875325242e-04
 3.8300100000000001e+00,  3.7255237029291316e-01, -4.7166833333333330e-01, -3.8390072180087175e+09, -4.7166833333333330e-01, -3.8390072180087175e+09, -6.3803103591797394e-01, -2.0377977595773196e+09,  2.9800000000000000e+02,  3.1667205053546177e-01,  2.1591782674159482e-05,  3.1667205053546188e-01,  1.3604760198435628e-05
 3.8400099999999999e+00,  3.7471537908896368e-01, -4.7333499999999995e-01, -3.8595354024574766e+09, -4.7333499999999995e-01, -3.8595354024574766e+09, -6.4119060619120349e-01, -2.0422525479212372e+09,  2.9800000000000000e+02,  3.1824671266548499e-01,  1.7024278612985944e-03,  3.1824671266548510e-01,  1.7037540647164423e-03
 3.8500100000000002e+00,  3.7688871267198898e-01, -4.7500166666666660e-01, -3.8801679366835146e+09, -4.7500166666666660e-01, -3.8801679366835146e+09, -6.4436019099872699e-01, -2.0466936547339377e+09,  2.9800000000000000e+02,  3.1982639779640809e-01, -1.6957521398486378e-05,  3.1982639779640809e-01, -1.4528632112762179e-05
 3.8600099999999999e+00,  3.7907245313490850e-01, -4.7666833333333331e-01, -3.9009058123193789e+09, -4.7666833333333331e-01, -3.9009058123193789e+09, -6.4753985402634007e-01, -2.0511210763507571e+09,  2.9800000000000000e+02,  3.2141113777535557e-01,  2.0414591255857924e-06,  3.2141113777535524e-01,  2.5480986130330531e-06
 3.8700100000000002e+00,  3.8126668348773030e-01, -4.7833499999999990e-01, -3.9217500336984997e+09, -4.7833499999999990e-01, -3.9217500336984997e+09, -6.5072965956927575e-01, -2.0555348091242738e+09,  2.9800000000000000e+02,  3.2300096475413420e-01,  2.5764107745164955e-05,  3.2300096475413353e-01,  2.3528933574787933e-05
 3.8800100000000000e+00,  3.8347148767080874e-01, -4.8000166666666660e-01, -3.9427016180424261e+09, -4.8000166666666660e-01, -3.9427016180424261e+09, -6.5392967254000545e-01, -2.0599348494156733e+09,  2.9800000000000000e+02,  3.2459591119316417e-01,  1.1083483699353807e-04,  3.2459591119316356e-01,  1.1868774896527269e-04
 3.8900100000000002e+00,  3.8568695056828567e-01, -4.8166833333333325e-01, -3.9637615956720667e+09, -4.8166833333333325e-01, -3.9637615956720667e+09, -6.5713995847616524e-01, -2.0643211935968876e+09,  2.9800000000000000e+02,  3.2619600986543534e-01,  4.9173831997840047e-06,  3.2619600986543468e-01,  3.4719706379263246e-06
 3.9000100000000000e+00,  3.8791315802178467e-01, -4.8333499999999996e-01, -3.9849310102172432e+09, -4.8333499999999996e-01, -3.9849310102172432e+09, -6.6036058354860916e-01, -2.0686938380496764e+09,  2.9800000000000000e+02,  3.2780129386053664e-01,  2.5317072768612521e-05,  3.2780129386053591e-01,  1.1086464086173620e-05
 3.9100100000000002e+00,  3.9015019684433572e-01, -4.8500166666666661e-01, -4.0062109188341722e+09, -4.8500166666666661e-01, -4.0062109188341722e+09, -6.6359161456959237e-01, -2.0730527791667590e+09,  2.9800000000000000e+02,  3.2941179658874342e-01, -4.5686960727608385e-05,  3.2941179658874276e-01, -4.5508145877909563e-05
 3.9200100000000000e+00,  3.9239815483456186e-01, -4.8666833333333331e-01, -4.0276023924231091e+09, -4.8666833333333331e-01, -4.0276023924231091e+09, -6.6683311900108933e-01, -2.0773980133507969e+09,  2.9800000000000000e+02,  3.3102755178518078e-01,  1.1657178222810585e-04,  3.3102755178518001e-01,  1.1759996522872802e-04
 3.9300100000000002e+00,  3.9465712079111726e-01, -4.8833499999999996e-01, -4.0491065158512831e+09, -4.8833499999999996e-01, -4.0491065158512831e+09, -6.7008516496324455e-01, -2.0817295370139198e+09,  2.9800000000000000e+02,  3.3264859351404963e-01,  1.7972737610331031e-03,  3.3264859351404885e-01,  1.7941594135953837e-03
 3.9400100000000000e+00,  3.9692718452734377e-01, -4.9000166666666667e-01, -4.0707243881953292e+09, -4.9000166666666667e-01, -4.0707243881953292e+09, -6.7334782124296189e-01, -2.0860473465851221e+09,  2.9800000000000000e+02,  3.3427495617289688e-01, -1.2990832383502626e-04,  3.3427495617289588e-01, -1.3779102934178417e-04
 3.9500100000000002e+00,  3.9920843688631391e-01, -4.9166833333333326e-01, -4.0924571229411492e+09, -4.9166833333333326e-01, -4.0924571229411492e+09, -6.7662115730263428e-01, -2.0903514384931202e+09,  2.9800000000000000e+02,  3.3590667449703931e-01, -7.0631505313842834e-06,  3.3590667449703798e-01, -1.3500451627202652e-05
 3.9600100000000000e+00,  4.0150096975597693e-01, -4.9333499999999997e-01, -4.1143058482539492e+09, -4.9333499999999997e-01, -4.1143058482539492e+09, -6.7990524328901925e-01, -2.0946418091834233e+09,  2.9800000000000000e+02,  3.3754378356394132e-01,  1.5068501231553927e-03,  3.3754378356393983e-01,  1.4985650776699506e-03
 3.9700100000000003e+00,  4.0380487608467580e-01, -4.9500166666666662e-01, -4.1362717072156372e+09, -4.9500166666666662e-01, -4.1362717072156372e+09, -6.8320015004225632e-01, -2.0989184551158478e+09,  2.9800000000000000e+02,  3.3918631879773370e-01, -7.5057143984915038e-05,  3.3918631879773242e-01, -8.0510975221379996e-05
 3.9800100000000000e+00,  4.0612024989699802e-01, -4.9666833333333332e-01, -4.1583558580464067e+09, -4.9666833333333332e-01, -4.1583558580464067e+09, -6.8650594910503693e-01, -2.1031813727514935e+09,  2.9800000000000000e+02,  3.4083431597384323e-01,  1.8984079890213524e-05,  3.4083431597384217e-01,  1.8954276345175105e-05
 3.9900100000000003e+00,  4.0844718630978311e-01, -4.9833499999999997e-01, -4.1805594743843803e+09, -4.9833499999999997e-01, -4.1805594743843803e+09, -6.8982271273192541e-01, -2.1074305585671580e+09,  2.9800000000000000e+02,  3.4248781122360272e-01,  1.3744980137212828e-03,  3.4248781122360161e-01,  1.3654381021202533e-03
 4.0000000000000000e+00,  4.1078343709736787e-01, -5.0000000000000000e-01, -4.2028613606013098e+09, -5.0000000000000000e-01, -4.2028613606013098e+09, -6.9314718055994518e-01, -2.1116617804651740e+09,  2.9800000000000000e+02,  3.4414517923242677e-01,  8.9853999380323270e-06,  3.4414517923242577e-01,  2.0980838616809546e-05
